     Program PWSCF v.7.3.1 starts on 18Jan2025 at  0:38:18

     Reading input from relax.in

     Current dimensions of program PWSCF are:
     Max number of different atomic species (ntypx) = 10
     Max number of k-points (npk) =  40000
     Max angular momentum in pseudopotentials (lmaxx) =  4
     file Mn.pbe-spn-kjpaw_psl.0.3.1.UPF: wavefunction(s)  3P 3D renormalized
     file Mn.pbe-spn-kjpaw_psl.0.3.1.UPF: wavefunction(s)  3P 3D renormalized
     file S.pbe-n-kjpaw_psl.1.0.0.UPF: wavefunction(s)  3S 3P renormalized
     Message from routine setup:
     using ibrav=0 with symmetry is DISCOURAGED, use correct ibrav instead

     R & G space division:  proc/nbgrp/npool/nimage =       6
     Subspace diagonalization in iterative solution of the eigenvalue problem:
     a serial algorithm will be used

     Using Slab Decomposition

     bravais-lattice index     =            0
     lattice parameter (alat)  =      14.7866  a.u.
     unit-cell volume          =     571.5148 (a.u.)^3
     number of atoms/cell      =            4
     number of atomic types    =            3
     number of electrons       =        42.00
     number of Kohn-Sham states=           25
     kinetic-energy cutoff     =      30.0000  Ry
     charge density cutoff     =     150.0000  Ry
     scf convergence threshold =      1.0E-10
     mixing beta               =       0.7000
     number of iterations used =            8  plain     mixing
     energy convergence thresh.=      1.0E-05
     force convergence thresh. =      1.0E-04
     Exchange-correlation= SLA  PW   PBX  PBC
                           (   1   4   3   4   0   0   0)
     nstep                     =           50

     celldm(1)=  14.786571  celldm(2)=   0.000000  celldm(3)=   0.000000
     celldm(4)=   0.000000  celldm(5)=   0.000000  celldm(6)=   0.000000

     crystal axes: (cart. coord. in units of alat)
               a(1) = (   1.000000   0.000000   0.000000 )
               a(2) = (   0.250000   0.433013   0.000000 )
               a(3) = (   0.250000   0.144338   0.408248 )

     reciprocal axes: (cart. coord. in units 2 pi/alat)
               b(1) = (  1.000000 -0.577350 -0.408248 )
               b(2) = (  0.000000  2.309401 -0.816496 )
               b(3) = (  0.000000  0.000000  2.449490 )

     PseudoPot. # 1 for Mn read from file:
     ./../../../pseudos/Mn.pbe-spn-kjpaw_psl.0.3.1.UPF
     MD5 check sum: ba19e6d7ccbc12830efad05ba8577d9c
     Pseudo is Projector augmented-wave + core cor, Zval = 15.0
     Generated using &quot;atomic&quot; code by A. Dal Corso  v.6.2.2
     Shape of augmentation charge: PSQ
     Using radial grid of 1187 points,  6 beta functions with:
                l(1) =   0
                l(2) =   0
                l(3) =   1
                l(4) =   1
                l(5) =   2
                l(6) =   2
     Q(r) pseudized with 0 coefficients

     PseudoPot. # 2 for Mn read from file:
     ./../../../pseudos/Mn.pbe-spn-kjpaw_psl.0.3.1.UPF
     MD5 check sum: ba19e6d7ccbc12830efad05ba8577d9c
     Pseudo is Projector augmented-wave + core cor, Zval = 15.0
     Generated using &quot;atomic&quot; code by A. Dal Corso  v.6.2.2
     Shape of augmentation charge: PSQ
     Using radial grid of 1187 points,  6 beta functions with:
                l(1) =   0
                l(2) =   0
                l(3) =   1
                l(4) =   1
                l(5) =   2
                l(6) =   2
     Q(r) pseudized with 0 coefficients

     PseudoPot. # 3 for S  read from file:
     ./../../../pseudos/S.pbe-n-kjpaw_psl.1.0.0.UPF
     MD5 check sum: fb45dfebcf3e72a4e1bd4a866ec2e262
     Pseudo is Projector augmented-wave + core cor, Zval =  6.0
     Generated using &quot;atomic&quot; code by A. Dal Corso  v.6.3
     Shape of augmentation charge: PSQ
     Using radial grid of 1151 points,  6 beta functions with:
                l(1) =   0
                l(2) =   0
                l(3) =   1
                l(4) =   1
                l(5) =   2
                l(6) =   2
     Q(r) pseudized with 0 coefficients

     atomic species   valence    mass     pseudopotential
     Mn1              15.00    54.93800     Mn( 1.00)
     Mn2              15.00    54.93800     Mn( 1.00)
     S                 6.00    32.06500     S ( 1.00)

     Starting magnetic structure
     atomic species   magnetization
     Mn1             0.200
     Mn2            -0.200
     S               0.000

      2 Sym. Ops. (no inversion) found

                                    s                        frac. trans.

      isym =  1     identity

 cryst.   s( 1) = (     1          0          0      )
                  (     0          1          0      )
                  (     0          0          1      )

 cart.    s( 1) = (  1.0000000  0.0000000  0.0000000 )
                  (  0.0000000  1.0000000  0.0000000 )
                  (  0.0000000  0.0000000  1.0000000 )

      isym =  2     inv. 180 deg rotation - cryst. axis [1,1,0]

 cryst.   s( 2) = (     1         -2          0      )
                  (     0         -1          0      )
                  (     0         -1          1      )

 cart.    s( 2) = (  0.5000001 -0.8660253 -0.0000000 )
                  ( -0.8660254 -0.5000001 -0.0000001 )
                  (  0.0000000  0.0000000  1.0000000 )

   Cartesian axes

     site n.     atom                  positions (alat units)
         1        Mn1    tau(   1) = (   0.7500000   0.4330127   0.3061862  )
         2        Mn2    tau(   2) = (   1.2500000   0.4330127   0.3061862  )
         3        S      tau(   3) = (   0.0000000   0.0000000   0.0000000  )
         4        S      tau(   4) = (   0.5000000   0.0000000   0.0000000  )

   Crystallographic axes

     site n.     atom                  positions (cryst. coord.)
         1        Mn1    tau(   1) = (  0.3750000  0.7500000  0.7500000  )
         2        Mn2    tau(   2) = (  0.8750000  0.7500000  0.7500000  )
         3        S      tau(   3) = (  0.0000000  0.0000000  0.0000000  )
         4        S      tau(   4) = (  0.5000000  0.0000000  0.0000000  )

     number of k points=    38  Gaussian smearing, width (Ry)=  0.0100
                       cart. coord. in units 2pi/alat
        k(    1) = (   0.0000000   0.0000000   0.0000000), wk =   0.0133333
        k(    2) = (   0.0000000   0.0000000   0.4898979), wk =   0.0266667
        k(    3) = (   0.0000000   0.0000000   0.9797958), wk =   0.0266667
        k(    4) = (   0.0000000   0.4618802  -0.1632993), wk =   0.0266667
        k(    5) = (   0.0000000   0.4618802   0.3265986), wk =   0.0266667
        k(    6) = (   0.0000000   0.4618802   0.8164966), wk =   0.0266667
        k(    7) = (   0.0000000   0.4618802  -1.1430951), wk =   0.0266667
        k(    8) = (   0.0000000   0.4618802  -0.6531972), wk =   0.0266667
        k(    9) = (   0.0000000   0.9237604  -0.3265986), wk =   0.0266667
        k(   10) = (   0.0000000   0.9237604   0.1632993), wk =   0.0266667
        k(   11) = (   0.0000000   0.9237604   0.6531973), wk =   0.0266667
        k(   12) = (   0.0000000   0.9237604  -1.3063944), wk =   0.0266667
        k(   13) = (   0.0000000   0.9237604  -0.8164965), wk =   0.0266667
        k(   14) = (   0.3333333  -0.1924501  -0.1360827), wk =   0.0266667
        k(   15) = (   0.3333333  -0.1924501   0.3538152), wk =   0.0266667
        k(   16) = (   0.3333333  -0.1924501   0.8437131), wk =   0.0266667
        k(   17) = (   0.3333333  -0.1924501  -1.1158786), wk =   0.0266667
        k(   18) = (   0.3333333  -0.1924501  -0.6259807), wk =   0.0266667
        k(   19) = (   0.3333333   0.2694301  -0.2993820), wk =   0.0266667
        k(   20) = (   0.3333333   0.2694301   0.1905159), wk =   0.0266667
        k(   21) = (   0.3333333   0.2694301   0.6804138), wk =   0.0266667
        k(   22) = (   0.3333333   0.2694301  -1.2791779), wk =   0.0266667
        k(   23) = (   0.3333333   0.2694301  -0.7892800), wk =   0.0266667
        k(   24) = (   0.3333333   0.7313103  -0.4626813), wk =   0.0266667
        k(   25) = (   0.3333333   0.7313103   0.0272166), wk =   0.0266667
        k(   26) = (   0.3333333   0.7313103   0.5171145), wk =   0.0266667
        k(   27) = (   0.3333333   0.7313103  -1.4424772), wk =   0.0266667
        k(   28) = (   0.3333333   0.7313103  -0.9525793), wk =   0.0266667
        k(   29) = (   0.3333333  -1.1162105   0.1905158), wk =   0.0266667
        k(   30) = (   0.3333333  -1.1162105   0.6804138), wk =   0.0266667
        k(   31) = (   0.3333333  -1.1162105   1.1703117), wk =   0.0266667
        k(   32) = (   0.3333333  -1.1162105  -0.7892800), wk =   0.0266667
        k(   33) = (   0.3333333  -1.1162105  -0.2993821), wk =   0.0266667
        k(   34) = (   0.3333333  -0.6543303   0.0272165), wk =   0.0266667
        k(   35) = (   0.3333333  -0.6543303   0.5171145), wk =   0.0266667
        k(   36) = (   0.3333333  -0.6543303   1.0070124), wk =   0.0266667
        k(   37) = (   0.3333333  -0.6543303  -0.9525793), wk =   0.0266667
        k(   38) = (   0.3333333  -0.6543303  -0.4626814), wk =   0.0266667

                       cryst. coord.
        k(    1) = (   0.0000000   0.0000000   0.0000000), wk =   0.0133333
        k(    2) = (   0.0000000   0.0000000   0.2000000), wk =   0.0266667
        k(    3) = (   0.0000000   0.0000000   0.4000000), wk =   0.0266667
        k(    4) = (   0.0000000   0.2000000   0.0000000), wk =   0.0266667
        k(    5) = (   0.0000000   0.2000000   0.2000000), wk =   0.0266667
        k(    6) = (   0.0000000   0.2000000   0.4000000), wk =   0.0266667
        k(    7) = (   0.0000000   0.2000000  -0.4000000), wk =   0.0266667
        k(    8) = (   0.0000000   0.2000000  -0.2000000), wk =   0.0266667
        k(    9) = (   0.0000000   0.4000000   0.0000000), wk =   0.0266667
        k(   10) = (   0.0000000   0.4000000   0.2000000), wk =   0.0266667
        k(   11) = (   0.0000000   0.4000000   0.4000000), wk =   0.0266667
        k(   12) = (   0.0000000   0.4000000  -0.4000000), wk =   0.0266667
        k(   13) = (   0.0000000   0.4000000  -0.2000000), wk =   0.0266667
        k(   14) = (   0.3333333  -0.0000000  -0.0000000), wk =   0.0266667
        k(   15) = (   0.3333333  -0.0000000   0.2000000), wk =   0.0266667
        k(   16) = (   0.3333333  -0.0000000   0.4000000), wk =   0.0266667
        k(   17) = (   0.3333333  -0.0000000  -0.4000000), wk =   0.0266667
        k(   18) = (   0.3333333  -0.0000000  -0.2000000), wk =   0.0266667
        k(   19) = (   0.3333333   0.2000000  -0.0000000), wk =   0.0266667
        k(   20) = (   0.3333333   0.2000000   0.2000000), wk =   0.0266667
        k(   21) = (   0.3333333   0.2000000   0.4000000), wk =   0.0266667
        k(   22) = (   0.3333333   0.2000000  -0.4000000), wk =   0.0266667
        k(   23) = (   0.3333333   0.2000000  -0.2000000), wk =   0.0266667
        k(   24) = (   0.3333333   0.4000000   0.0000000), wk =   0.0266667
        k(   25) = (   0.3333333   0.4000000   0.2000000), wk =   0.0266667
        k(   26) = (   0.3333333   0.4000000   0.4000000), wk =   0.0266667
        k(   27) = (   0.3333333   0.4000000  -0.4000000), wk =   0.0266667
        k(   28) = (   0.3333333   0.4000000  -0.2000000), wk =   0.0266667
        k(   29) = (   0.3333333  -0.4000000   0.0000000), wk =   0.0266667
        k(   30) = (   0.3333333  -0.4000000   0.2000000), wk =   0.0266667
        k(   31) = (   0.3333333  -0.4000000   0.4000000), wk =   0.0266667
        k(   32) = (   0.3333333  -0.4000000  -0.4000000), wk =   0.0266667
        k(   33) = (   0.3333333  -0.4000000  -0.2000000), wk =   0.0266667
        k(   34) = (   0.3333333  -0.2000000  -0.0000000), wk =   0.0266667
        k(   35) = (   0.3333333  -0.2000000   0.2000000), wk =   0.0266667
        k(   36) = (   0.3333333  -0.2000000   0.4000000), wk =   0.0266667
        k(   37) = (   0.3333333  -0.2000000  -0.4000000), wk =   0.0266667
        k(   38) = (   0.3333333  -0.2000000  -0.2000000), wk =   0.0266667

     Check: negative core charge=   -0.000237
     Generating pointlists ...
     new r_m :   0.1263 (alat units)  1.8676 (a.u.) for type    1
     new r_m :   0.1263 (alat units)  1.8676 (a.u.) for type    2
     new r_m :   0.1263 (alat units)  1.8676 (a.u.) for type    3

     Initial potential from superposition of free atoms

     starting charge      41.9989, renormalised to      42.0000
     Starting wfcs are   28 randomized atomic wfcs
     Checking if some PAW data can be deallocated...

     Self-consistent Calculation

     iteration #  1     ecut=    30.00 Ry     beta= 0.70
     Davidson diagonalization with overlap

     ethr =  1.00E-02,  avg # of iterations =  2.0

     Threshold (ethr) on eigenvalues was too large:
     Diagonalizing with lowered threshold

     Davidson diagonalization with overlap

[...]

     total energy              =    -705.51013564 Ry
     estimated scf accuracy    <       0.13340133 Ry

     total magnetization       =     0.00 Bohr mag/cell
     absolute magnetization    =     8.16 Bohr mag/cell

[...]

     Magnetic moment per site  (integrated on atomic sphere of radius R)
     atom   1 (R=0.126)  charge= 12.9060  magn=  3.9271
     atom   2 (R=0.126)  charge= 12.9060  magn= -3.9271
     atom   3 (R=0.126)  charge=  4.1391  magn= -0.0613
     atom   4 (R=0.126)  charge=  4.1391  magn=  0.0613

     End of self-consistent calculation

 ------ SPIN UP ------------

          k = 0.0000 0.0000 0.0000 (  1617 PWs)   bands (ev):

   -74.4249 -70.0016 -43.1638 -43.1637 -43.1145 -38.8016 -38.7795 -38.7794
    -6.1217  -5.4083   2.2431   3.0487   3.0487   3.4174   4.1367   4.1367
     5.0845   5.0845   6.5490   7.5046   7.5047   8.7757   8.7757   9.4372
    10.1418

     occupation numbers
     1.0000   1.0000   1.0000   1.0000   1.0000   1.0000   1.0000   1.0000
     1.0000   1.0000   1.0000   1.0000   1.0000   1.0000   1.0000   1.0000
     1.0000   1.0000   1.0000   0.9999   0.9999   0.0000   0.0000   0.0000
     0.0000

[...]

 ------ SPIN DOWN ----------

[...]

     the Fermi energy is     7.8635 ev

!    total energy              =    -705.55614404 Ry
     total all-electron energy =     -6231.272951 Ry
     estimated scf accuracy    <          3.6E-11 Ry
     smearing contrib. (-TS)   =      -0.00000044 Ry
     internal energy E=F+TS    =    -705.55614360 Ry

     The total energy is F=E-TS. E is the sum of the following terms:
     one-electron contribution =    -304.55211576 Ry
     hartree contribution      =     169.20662798 Ry
     xc contribution           =     -66.18456472 Ry
     ewald contribution        =    -256.51068425 Ry
     one-center paw contrib.   =    -247.51540685 Ry
      -> PAW hartree energy AE =     175.16884654 Ry
      -> PAW hartree energy PS =    -176.13174103 Ry
      -> PAW xc energy AE      =    -104.51010758 Ry
      -> PAW xc energy PS      =      27.85083079 Ry
      -> total E_H with PAW    =     168.24373349 Ry
      -> total E_XC with PAW   =    -142.84384150 Ry

[...]

     convergence has been achieved in  14 iterations

     Forces acting on atoms (cartesian axes, Ry/au):

     atom    1 type  1   force =    -0.01256468    0.00725422    0.00514902
     atom    2 type  2   force =    -0.01257083    0.00725777    0.00515142
     atom    3 type  3   force =     0.01256688   -0.00725549   -0.00514984
     atom    4 type  3   force =     0.01256863   -0.00725650   -0.00515060
     The non-local contrib.  to forces
     atom    1 type  1   force =    -0.01153526    0.00665988    0.00475743
     atom    2 type  2   force =    -0.01153572    0.00666015    0.00475763
     atom    3 type  3   force =     0.00915601   -0.00528622   -0.00373924
     atom    4 type  3   force =     0.00915658   -0.00528655   -0.00373945
     The ionic contribution  to forces
     atom    1 type  1   force =    -0.00000135   -0.00000078   -0.00000055
     atom    2 type  2   force =    -0.00000135   -0.00000078   -0.00000055
     atom    3 type  3   force =     0.00000135    0.00000078    0.00000055
     atom    4 type  3   force =     0.00000135    0.00000078    0.00000055
     The local contribution  to forces
     atom    1 type  1   force =    -0.00429064    0.00247824    0.00172448
     atom    2 type  2   force =    -0.00428721    0.00247626    0.00172304
     atom    3 type  3   force =     0.00362873   -0.00209630   -0.00150048
     atom    4 type  3   force =     0.00363263   -0.00209855   -0.00150208
     The core correction contribution to forces
     atom    1 type  1   force =     0.00323415   -0.00186723   -0.00132086
     atom    2 type  2   force =     0.00323415   -0.00186723   -0.00132086
     atom    3 type  3   force =    -0.00024256    0.00014004    0.00009868
     atom    4 type  3   force =    -0.00024257    0.00014004    0.00009868
     The Hubbard contrib.    to forces
     atom    1 type  1   force =     0.00000000    0.00000000    0.00000000
     atom    2 type  2   force =     0.00000000    0.00000000    0.00000000
     atom    3 type  3   force =     0.00000000    0.00000000    0.00000000
     atom    4 type  3   force =     0.00000000    0.00000000    0.00000000
     The SCF correction term to forces
     atom    1 type  1   force =     0.00000641   -0.00000370   -0.00000275
     atom    2 type  2   force =    -0.00000271    0.00000156    0.00000089
     atom    3 type  3   force =     0.00000169   -0.00000098   -0.00000062
     atom    4 type  3   force =    -0.00000101    0.00000058    0.00000044

     Total force =     0.030798     Total SCF correction =     0.000009

     BFGS Geometry Optimization
     Energy error            =      0.0E+00 Ry
     Gradient error          =      1.3E-02 Ry/Bohr

     number of scf cycles    =   1
     number of bfgs steps    =   0

     energy             new  =    -705.5561440406 Ry

     new trust radius        =       0.0154025425 bohr
     new conv_thr            =            1.0E-10 Ry

ATOMIC_POSITIONS (crystal)
Mn1              0.3737248579        0.7508486584        0.7508529673
Mn2              0.8737242363        0.7508490805        0.7508533663
S                0.0012753633       -0.0008488111       -0.0008531042
S                0.5012755425       -0.0008489278       -0.0008532293

     Writing config-only to output data dir ./temp/mns.save/ :
     XML data file
     NEW-OLD atomic charge density approx. for the potential

     Check: negative core charge=   -0.000237
     Generating pointlists ...

[...]

     Total force =     0.024083     Total SCF correction =     0.000019
     Energy error            =      8.5E-04 Ry
     Gradient error          =      9.8E-03 Ry/Bohr

[...]

     energy             old  =    -705.5561440406 Ry
     energy             new  =    -705.5569904622 Ry

     CASE: energy            _new < energy            _old

[...]

     Check: negative core charge=   -0.000238
     Generating pointlists ...
     new r_m :   0.1231 (alat units)  1.8199 (a.u.) for type    1
     new r_m :   0.1231 (alat units)  1.8199 (a.u.) for type    2
     new r_m :   0.1231 (alat units)  1.8199 (a.u.) for type    3

[...]

     Total force =     0.000196     Total SCF correction =     0.000002
     Energy error            =      1.6E-05 Ry
     Gradient error          =      8.2E-05 Ry/Bohr

     number of scf cycles    =   5
     number of bfgs steps    =   4

     energy             old  =    -705.5581644004 Ry
     energy             new  =    -705.5581806407 Ry

     CASE: energy            _new < energy            _old

     new trust radius        =       0.0003580526 bohr
     new conv_thr            =            1.0E-12 Ry

ATOMIC_POSITIONS (crystal)
Mn1              0.3697678046        0.7534821736        0.7535000429
Mn2              0.8697658099        0.7534835034        0.7535013726
S                0.0052335881       -0.0034831053       -0.0035009647
S                0.5052327975       -0.0034825717       -0.0035004508

     Writing config-only to output data dir ./temp/mns.save/ :
     XML data file
     NEW-OLD atomic charge density approx. for the potential

     Check: negative core charge=   -0.000238
     Generating pointlists ...

     Self-consistent Calculation

[...]

     Threshold (ethr) on eigenvalues was too large:
     Diagonalizing with lowered threshold

     Davidson diagonalization with overlap

[...]

     total energy              =    -705.55818071 Ry
     estimated scf accuracy    <          2.9E-12 Ry

[...]

     iteration # 10     ecut=    30.00 Ry     beta= 0.70
     Davidson diagonalization with overlap

     ethr =  1.00E-13,  avg # of iterations =  1.0

     Magnetic moment per site  (integrated on atomic sphere of radius R)
     atom   1 (R=0.123)  charge= 12.7983  magn=  3.8650
     atom   2 (R=0.123)  charge= 12.7983  magn= -3.8650
     atom   3 (R=0.123)  charge=  3.9587  magn= -0.0529
     atom   4 (R=0.123)  charge=  3.9587  magn=  0.0529

     End of self-consistent calculation

 ------ SPIN UP ------------

[...]

 ------ SPIN DOWN ----------

[...]

          k = 0.3333-0.6543-0.4627 (  1599 PWs)   bands (ev):

   -74.4030 -70.0030 -43.1491 -43.1484 -43.0822 -38.8070 -38.7810 -38.7800
    -5.7524  -5.5143   2.4859   2.7467   3.2583   3.3524   3.9586   4.1914
     4.9532   5.1034   6.4197   6.5892   7.0640   8.5844   8.7773   9.2604
     9.7936

     occupation numbers
     1.0000   1.0000   1.0000   1.0000   1.0000   1.0000   1.0000   1.0000
     1.0000   1.0000   1.0000   1.0000   1.0000   1.0000   1.0000   1.0000
     1.0000   1.0000   1.0000   1.0000   1.0000   0.0000   0.0000   0.0000
     0.0000

     the Fermi energy is     7.8188 ev

!    total energy              =    -705.55818071 Ry
     total all-electron energy =     -6231.274988 Ry
     estimated scf accuracy    <          7.7E-14 Ry
     smearing contrib. (-TS)   =      -0.00000001 Ry
     internal energy E=F+TS    =    -705.55818070 Ry

     The total energy is F=E-TS. E is the sum of the following terms:
     one-electron contribution =    -304.66517638 Ry
     hartree contribution      =     169.26312921 Ry
     xc contribution           =     -66.17885035 Ry
     ewald contribution        =    -256.46491089 Ry
     one-center paw contrib.   =    -247.51237230 Ry
      -> PAW hartree energy AE =     175.27724699 Ry
      -> PAW hartree energy PS =    -176.23879244 Ry
      -> PAW xc energy AE      =    -104.51254940 Ry
      -> PAW xc energy PS      =      27.85323231 Ry
      -> total E_H with PAW    =     168.30158376 Ry
      -> total E_XC with PAW   =    -142.83816743 Ry

     total magnetization       =    -0.00 Bohr mag/cell
     absolute magnetization    =     8.97 Bohr mag/cell

     convergence has been achieved in  10 iterations

     Forces acting on atoms (cartesian axes, Ry/au):

     atom    1 type  1   force =    -0.00000205    0.00000118    0.00000218
     atom    2 type  2   force =     0.00000098   -0.00000056    0.00000095
     atom    3 type  3   force =     0.00000044   -0.00000026   -0.00000153
     atom    4 type  3   force =     0.00000062   -0.00000036   -0.00000159
     The non-local contrib.  to forces
     atom    1 type  1   force =     0.00296627   -0.00171258   -0.00117910
     atom    2 type  2   force =     0.00296143   -0.00170978   -0.00117711
     atom    3 type  3   force =    -0.00203515    0.00117500    0.00084287
     atom    4 type  3   force =    -0.00203362    0.00117411    0.00084226
     The ionic contribution  to forces
     atom    1 type  1   force =     0.30741475   -0.17748748   -0.12587358
     atom    2 type  2   force =     0.30776657   -0.17769060   -0.12601681
     atom    3 type  3   force =    -0.30752986    0.17755394    0.12592026
     atom    4 type  3   force =    -0.30765146    0.17762415    0.12597013
     The local contribution  to forces
     atom    1 type  1   force =    -0.31394840    0.18125981    0.12851070
     atom    2 type  2   force =    -0.31429471    0.18145975    0.12865167
     atom    3 type  3   force =     0.30891371   -0.17835264   -0.12649695
     atom    4 type  3   force =     0.30903429   -0.17842225   -0.12654640
     The core correction contribution to forces
     atom    1 type  1   force =     0.00327761   -0.00189232   -0.00133784
     atom    2 type  2   force =     0.00327903   -0.00189314   -0.00133842
     atom    3 type  3   force =     0.00036343   -0.00020983   -0.00014945
     atom    4 type  3   force =     0.00036343   -0.00020983   -0.00014945
     The Hubbard contrib.    to forces
     atom    1 type  1   force =     0.00000000    0.00000000    0.00000000
     atom    2 type  2   force =     0.00000000    0.00000000    0.00000000
     atom    3 type  3   force =     0.00000000    0.00000000    0.00000000
     atom    4 type  3   force =     0.00000000    0.00000000    0.00000000
     The SCF correction term to forces
     atom    1 type  1   force =    -0.00000046    0.00000027    0.00000019
     atom    2 type  2   force =     0.00000046   -0.00000026   -0.00000019
     atom    3 type  3   force =     0.00000018   -0.00000010   -0.00000008
     atom    4 type  3   force =    -0.00000015    0.00000009    0.00000006

     Total force =     0.000004     Total SCF correction =     0.000001
     SCF correction compared to forces is large: reduce conv_thr to get better values
     Energy error            =      6.9E-08 Ry
     Gradient error          =      2.2E-06 Ry/Bohr

     bfgs converged in   6 scf cycles and   5 bfgs steps
     (criteria: energy <  1.0E-05 Ry, force <  1.0E-04 Ry/Bohr)

     End of BFGS Geometry Optimization

     Final energy             =    -705.5581807101 Ry

     File ./temp/mns.bfgs deleted, as requested
Begin final coordinates

ATOMIC_POSITIONS (crystal)
Mn1              0.3697678046        0.7534821736        0.7535000429
Mn2              0.8697658099        0.7534835034        0.7535013726
S                0.0052335881       -0.0034831053       -0.0035009647
S                0.5052327975       -0.0034825717       -0.0035004508
End final coordinates

     Writing all to output data dir ./temp/mns.save/ :
     XML data file, charge density, pseudopotentials, collected wavefunctions

     General routines

     Parallel routines

     PAW routines

   This run was terminated on:   0:41:43  18Jan2025

   JOB DONE.