     Program PWSCF v.7.3.1 starts on 25Dec2024 at 22:19:14

     Reading input from vc_relax.in

     Current dimensions of program PWSCF are:
     Max number of different atomic species (ntypx) = 10
     Max number of k-points (npk) =  40000
     Max angular momentum in pseudopotentials (lmaxx) =  4
     file C.pbesol-n-kjpaw_psl.1.0.0.UPF: wavefunction(s)  2S 2P renormalized

     R & G space division:  proc/nbgrp/npool/nimage =       4
     Subspace diagonalization in iterative solution of the eigenvalue problem:
     a serial algorithm will be used

     Using Slab Decomposition

     bravais-lattice index     =            4
     lattice parameter (alat)  =       4.6625  a.u.
     unit-cell volume          =     277.6091 (a.u.)^3
     number of atoms/cell      =            4
     number of atomic types    =            1
     number of electrons       =        16.00
     number of Kohn-Sham states=           12
     kinetic-energy cutoff     =      40.0000  Ry
     charge density cutoff     =     320.0000  Ry
     scf convergence threshold =      1.0E-07
     mixing beta               =       0.7000
     number of iterations used =            8  plain     mixing
     energy convergence thresh.=      1.0E-05
     force convergence thresh. =      1.0E-04
     press convergence thresh. =      5.0E-01
     Exchange-correlation= SLA  PW   PSX  PSC
                           (   1   4  10   8   0   0   0)
     nstep                     =           50

     celldm(1)=   4.662505  celldm(2)=   0.000000  celldm(3)=   3.162607
     celldm(4)=   0.000000  celldm(5)=   0.000000  celldm(6)=   0.000000

     crystal axes: (cart. coord. in units of alat)
               a(1) = (   1.000000   0.000000   0.000000 )
               a(2) = (  -0.500000   0.866025   0.000000 )
               a(3) = (   0.000000   0.000000   3.162607 )

     reciprocal axes: (cart. coord. in units 2 pi/alat)
               b(1) = (  1.000000  0.577350 -0.000000 )
               b(2) = (  0.000000  1.154701  0.000000 )
               b(3) = (  0.000000 -0.000000  0.316195 )

     PseudoPot. # 1 for C  read from file:
     ./../../pseudos/C.pbesol-n-kjpaw_psl.1.0.0.UPF
     MD5 check sum: f9b2fe17d1f478429498b05d17159f9e
     Pseudo is Projector augmented-wave + core cor, Zval =  4.0
     Generated using &quot;atomic&quot; code by A. Dal Corso  v.6.3
     Shape of augmentation charge: PSQ
     Using radial grid of 1073 points,  4 beta functions with:
                l(1) =   0
                l(2) =   0
                l(3) =   1
                l(4) =   1
     Q(r) pseudized with 0 coefficients

     atomic species   valence    mass     pseudopotential
     C                 4.00    12.01100     C ( 1.00)

     24 Sym. Ops., with inversion, found (12 have fractional translation)

   Cartesian axes

     site n.     atom                  positions (alat units)
         1        C      tau(   1) = (   0.0000000   0.0000000   0.7906518  )
         2        C      tau(   2) = (   0.0000000   0.0000000   2.3719553  )
         3        C      tau(   3) = (   0.0000000   0.5773503   0.7906518  )
         4        C      tau(   4) = (   0.5000000   0.2886751   2.3719553  )

     Parameters for Dispersion (Grimme-D2) Correction:
       atom      VdW radius       C_6

        C          2.744         60.710

     number of k points=    57  Gaussian smearing, width (Ry)=  0.0200
                       cart. coord. in units 2pi/alat
        k(    1) = (   0.0000000   0.0000000   0.0000000), wk =   0.0034722
        k(    2) = (   0.0000000   0.0000000   0.0790487), wk =   0.0069444
        k(    3) = (   0.0000000   0.0000000  -0.1580974), wk =   0.0034722
        k(    4) = (   0.0000000   0.0962250   0.0000000), wk =   0.0208333
        k(    5) = (   0.0000000   0.0962250   0.0790487), wk =   0.0416667
        k(    6) = (   0.0000000   0.0962250  -0.1580974), wk =   0.0208333
        k(    7) = (   0.0000000   0.1924501   0.0000000), wk =   0.0208333
        k(    8) = (   0.0000000   0.1924501   0.0790487), wk =   0.0416667
        k(    9) = (   0.0000000   0.1924501  -0.1580974), wk =   0.0208333
        k(   10) = (   0.0000000   0.2886751   0.0000000), wk =   0.0208333
        k(   11) = (   0.0000000   0.2886751   0.0790487), wk =   0.0416667
        k(   12) = (   0.0000000   0.2886751  -0.1580974), wk =   0.0208333
        k(   13) = (   0.0000000   0.3849002   0.0000000), wk =   0.0208333
        k(   14) = (   0.0000000   0.3849002   0.0790487), wk =   0.0416667
        k(   15) = (   0.0000000   0.3849002  -0.1580974), wk =   0.0208333
        k(   16) = (   0.0000000   0.4811252   0.0000000), wk =   0.0208333
        k(   17) = (   0.0000000   0.4811252   0.0790487), wk =   0.0416667
        k(   18) = (   0.0000000   0.4811252  -0.1580974), wk =   0.0208333
        k(   19) = (   0.0000000  -0.5773503   0.0000000), wk =   0.0104167
        k(   20) = (   0.0000000  -0.5773503   0.0790487), wk =   0.0208333
        k(   21) = (   0.0000000  -0.5773503  -0.1580974), wk =   0.0104167
        k(   22) = (   0.0833333   0.1443376   0.0000000), wk =   0.0208333
        k(   23) = (   0.0833333   0.1443376   0.0790487), wk =   0.0416667
        k(   24) = (   0.0833333   0.1443376  -0.1580974), wk =   0.0208333
        k(   25) = (   0.0833333   0.2405626   0.0000000), wk =   0.0416667
        k(   26) = (   0.0833333   0.2405626   0.0790487), wk =   0.0833333
        k(   27) = (   0.0833333   0.2405626  -0.1580974), wk =   0.0416667
        k(   28) = (   0.0833333   0.3367877   0.0000000), wk =   0.0416667
        k(   29) = (   0.0833333   0.3367877   0.0790487), wk =   0.0833333
        k(   30) = (   0.0833333   0.3367877  -0.1580974), wk =   0.0416667
        k(   31) = (   0.0833333   0.4330127   0.0000000), wk =   0.0416667
        k(   32) = (   0.0833333   0.4330127   0.0790487), wk =   0.0833333
        k(   33) = (   0.0833333   0.4330127  -0.1580974), wk =   0.0416667
        k(   34) = (   0.0833333   0.5292377   0.0000000), wk =   0.0416667
        k(   35) = (   0.0833333   0.5292377   0.0790487), wk =   0.0833333
        k(   36) = (   0.0833333   0.5292377  -0.1580974), wk =   0.0416667
        k(   37) = (   0.1666667   0.2886751   0.0000000), wk =   0.0208333
        k(   38) = (   0.1666667   0.2886751   0.0790487), wk =   0.0416667
        k(   39) = (   0.1666667   0.2886751  -0.1580974), wk =   0.0208333
        k(   40) = (   0.1666667   0.3849002   0.0000000), wk =   0.0416667
        k(   41) = (   0.1666667   0.3849002   0.0790487), wk =   0.0833333
        k(   42) = (   0.1666667   0.3849002  -0.1580974), wk =   0.0416667
        k(   43) = (   0.1666667   0.4811252   0.0000000), wk =   0.0416667
        k(   44) = (   0.1666667   0.4811252   0.0790487), wk =   0.0833333
        k(   45) = (   0.1666667   0.4811252  -0.1580974), wk =   0.0416667
        k(   46) = (   0.1666667   0.5773503   0.0000000), wk =   0.0208333
        k(   47) = (   0.1666667   0.5773503   0.0790487), wk =   0.0416667
        k(   48) = (   0.1666667   0.5773503  -0.1580974), wk =   0.0208333
        k(   49) = (   0.2500000   0.4330127   0.0000000), wk =   0.0208333
        k(   50) = (   0.2500000   0.4330127   0.0790487), wk =   0.0416667
        k(   51) = (   0.2500000   0.4330127  -0.1580974), wk =   0.0208333
        k(   52) = (   0.2500000   0.5292377   0.0000000), wk =   0.0416667
        k(   53) = (   0.2500000   0.5292377   0.0790487), wk =   0.0833333
        k(   54) = (   0.2500000   0.5292377  -0.1580974), wk =   0.0416667
        k(   55) = (   0.3333333   0.5773503   0.0000000), wk =   0.0069444
        k(   56) = (   0.3333333   0.5773503   0.0790487), wk =   0.0138889
        k(   57) = (   0.3333333   0.5773503  -0.1580974), wk =   0.0069444

     Check: negative core charge=   -0.000011

     Initial potential from superposition of free atoms

     starting charge      15.9998, renormalised to      16.0000
     Starting wfcs are   16 randomized atomic wfcs
     Checking if some PAW data can be deallocated...

     Self-consistent Calculation

     iteration #  1     ecut=    40.00 Ry     beta= 0.70
     Davidson diagonalization with overlap
     ethr =  1.00E-02,  avg # of iterations =  2.9

     total energy              =     -72.44051028 Ry
     estimated scf accuracy    <       0.37122049 Ry

[...]

     iteration #  3     ecut=    40.00 Ry     beta= 0.70
     Davidson diagonalization with overlap
     c_bands:  1 eigenvalues not converged
     ethr =  2.34E-05,  avg # of iterations =  7.2

[...]

     End of self-consistent calculation

          k = 0.0000 0.0000 0.0000 (  1193 PWs)   bands (ev):

   -14.1529 -14.0668  -2.6970  -1.8294   2.3528   2.3528   2.3571   2.3571
     8.6153  13.6477  13.6478  13.6615

[...]

     the Fermi energy is     5.3607 ev

!    total energy              =     -72.49014220 Ry
     total all-electron energy =      -303.606253 Ry
     estimated scf accuracy    <       0.00000004 Ry
     smearing contrib. (-TS)   =      -0.00052278 Ry
     internal energy E=F+TS    =     -72.48961942 Ry

     The total energy is F=E-TS. E is the sum of the following terms:
     one-electron contribution =     -22.93501564 Ry
     hartree contribution      =      18.85518496 Ry
     xc contribution           =     -18.30992148 Ry
     ewald contribution        =     -26.51210758 Ry
     Dispersion Correction     =      -0.02703817 Ry
     one-center paw contrib.   =     -23.56072151 Ry

     convergence has been achieved in   6 iterations

     Forces acting on atoms (cartesian axes, Ry/au):

     atom    1 type  1   force =    -0.00000000   -0.00000000    0.00000000
     atom    2 type  1   force =     0.00000000    0.00000000    0.00000000
     atom    3 type  1   force =     0.00000000    0.00000000   -0.00000000
     atom    4 type  1   force =    -0.00000000   -0.00000000    0.00000000

     Total force =     0.000000     Total SCF correction =     0.000000

     Computing stress (Cartesian axis) and pressure

          total   stress  (Ry/bohr**3)                   (kbar)     P=      -41.50
  -0.00030758   0.00000000   0.00000000          -45.25        0.00        0.00
   0.00000000  -0.00030758   0.00000000            0.00      -45.25        0.00
   0.00000000   0.00000000  -0.00023117            0.00        0.00      -34.01

     BFGS Geometry Optimization
     Energy error            =      0.0E+00 Ry
     Gradient error          =      2.1E-25 Ry/Bohr
     Cell gradient error     =      4.5E+01 kbar

     number of scf cycles    =   1
     number of bfgs steps    =   0

     enthalpy           new  =     -72.4901422002 Ry

     new trust radius        =       0.0256236349 bohr
ibrav =      4
 celldm(1) =      4.62665295
 celldm(3) =      3.16869526
Input lattice vectors:
     0.99231058     0.00000000     0.00000000
    -0.49615529     0.85936617     0.00000000
     0.00000000     0.00000000     3.14432982
New lattice vectors in INITIAL alat:
     0.99231058     0.00000000     0.00000000
    -0.49615529     0.85936617     0.00000000
     0.00000000     0.00000000     3.14432982
New lattice vectors in NEW alat (for information only):
     1.00000000     0.00000000     0.00000000
    -0.50000000     0.86602540     0.00000000
     0.00000000     0.00000000     3.16869526
Discrepancy in bohr =     0.000000    0.000000    0.000000
     new conv_thr            =       0.0000001000 Ry

     new unit-cell volume =    271.77649 a.u.^3 (    40.27312 Ang^3 )
     density =      1.98095 g/cm^3

CELL_PARAMETERS (alat=  4.66250493)
   0.992310575   0.000000000   0.000000000
  -0.496155288   0.859366167   0.000000000
   0.000000000   0.000000000   3.144329818

ATOMIC_POSITIONS (crystal)
C               -0.0000000000       -0.0000000000        0.2500000000
C                0.0000000000        0.0000000000        0.7500000000
C                0.3333333330        0.6666666660        0.2500000000
C                0.6666666660        0.3333333330        0.7500000000

     Writing config-only to output data dir ./temp/graphite.save/ :
     XML data file
     NEW-OLD atomic charge density approx. for the potential

[...]

     Energy error            =      4.7E-04 Ry
     Gradient error          =      1.4E-25 Ry/Bohr
     Cell gradient error     =      3.9E+01 kbar

[...]

     enthalpy           old  =     -72.4901422002 Ry
     enthalpy           new  =     -72.4906134575 Ry

     CASE: enthalpy          _new < enthalpy          _old

[...]

     Threshold (ethr) on eigenvalues was too large:
     Diagonalizing with lowered threshold

     Davidson diagonalization with overlap
     ethr =  3.72E-08,  avg # of iterations =  1.6

[...]

     WARNING: bfgs curvature condition failed, Theta= 0.819
     new trust radius        =       0.0014142016 bohr
ibrav =      4
 celldm(1) =      4.68243059
 celldm(3) =      2.49777625
Input lattice vectors:
     1.00427360    -0.00000000     0.00000000
    -0.50213680     0.86972645     0.00000000
     0.00000000     0.00000000     2.50845074
New lattice vectors in INITIAL alat:
     1.00427360     0.00000000     0.00000000
    -0.50213680     0.86972645     0.00000000
     0.00000000     0.00000000     2.50845074
New lattice vectors in NEW alat (for information only):
     1.00000000     0.00000000     0.00000000
    -0.50000000     0.86602540     0.00000000
     0.00000000     0.00000000     2.49777625
Discrepancy in bohr =     0.000000    0.000000    0.000000
     new conv_thr            =       0.0000000010 Ry

[...]

     Energy error            =      3.0E-07 Ry
     Gradient error          =      8.0E-26 Ry/Bohr
     Cell gradient error     =      6.5E-01 kbar

     number of scf cycles    =  20
     number of bfgs steps    =  19

     enthalpy           old  =     -72.5037620218 Ry
     enthalpy           new  =     -72.5037623182 Ry

     CASE: enthalpy          _new < enthalpy          _old

     new trust radius        =       0.0024257941 bohr
ibrav =      4
 celldm(1) =      4.63802271
 celldm(3) =      2.48168713
Input lattice vectors:
     0.99474913    -0.00000000     0.00000000
    -0.49737456     0.86147801    -0.00000000
    -0.00000000    -0.00000000     2.46865611
New lattice vectors in INITIAL alat:
     0.99474913     0.00000000     0.00000000
    -0.49737456     0.86147801     0.00000000
     0.00000000     0.00000000     2.46865611
New lattice vectors in NEW alat (for information only):
     1.00000000     0.00000000     0.00000000
    -0.50000000     0.86602540     0.00000000
     0.00000000     0.00000000     2.48168713
Discrepancy in bohr =     0.000000    0.000000    0.000000
     new conv_thr            =       0.0000000010 Ry

     new unit-cell volume =    214.42542 a.u.^3 (    31.77457 Ang^3 )
     density =      2.51078 g/cm^3

[...]

ATOMIC_POSITIONS (crystal)
C               -0.0000000000       -0.0000000000        0.2500000000
C                0.0000000000        0.0000000000        0.7500000000
C                0.3333333330        0.6666666660        0.2500000000
C                0.6666666660        0.3333333330        0.7500000000

     Writing config-only to output data dir ./temp/graphite.save/ :
     XML data file
     NEW-OLD atomic charge density approx. for the potential

[...]

     Threshold (ethr) on eigenvalues was too large:
     Diagonalizing with lowered threshold

     Davidson diagonalization with overlap
     ethr =  6.52E-10,  avg # of iterations =  2.5

[...]

     Energy error            =      3.8E-07 Ry
     Gradient error          =      2.2E-25 Ry/Bohr
     Cell gradient error     =      2.0E-02 kbar
ibrav =      4
 celldm(1) =      4.63802271
 celldm(3) =      2.48168713
Input lattice vectors:
     0.99474913     0.00000000     0.00000000
    -0.49737456     0.86147801     0.00000000
     0.00000000     0.00000000     2.46865611
New lattice vectors in INITIAL alat:
     0.99474913     0.00000000     0.00000000
    -0.49737456     0.86147801     0.00000000
     0.00000000     0.00000000     2.46865611
New lattice vectors in NEW alat (for information only):
     1.00000000     0.00000000     0.00000000
    -0.50000000     0.86602540     0.00000000
     0.00000000     0.00000000     2.48168713
Discrepancy in bohr =     0.000000    0.000000    0.000000

     bfgs converged in  21 scf cycles and  20 bfgs steps
     (criteria: energy <  1.0E-05 Ry, force <  1.0E-04 Ry/Bohr, cell <  5.0E-01 kbar)

     End of BFGS Geometry Optimization

     Final enthalpy           =     -72.5037627012 Ry

     File ./temp/graphite.bfgs deleted, as requested
Begin final coordinates
     new unit-cell volume =    214.42542 a.u.^3 (    31.77457 Ang^3 )
     density =      2.51078 g/cm^3

CELL_PARAMETERS (alat=  4.66250493)
   0.994749127   0.000000000   0.000000000
  -0.497374563   0.861478014   0.000000000
   0.000000000   0.000000000   2.468656107

ATOMIC_POSITIONS (crystal)
C               -0.0000000000       -0.0000000000        0.2500000000
C                0.0000000000        0.0000000000        0.7500000000
C                0.3333333330        0.6666666660        0.2500000000
C                0.6666666660        0.3333333330        0.7500000000
End final coordinates

     Writing config-only to output data dir ./temp/graphite.save/ :
     XML data file

     Final scf calculation at the relaxed structure.
     The G-vectors are recalculated for the final unit cell
     Results may differ from those at the preceding step.

     Using Slab Decomposition

     bravais-lattice index     =            4
     lattice parameter (alat)  =       4.6625  a.u.
     unit-cell volume          =     214.4254 (a.u.)^3
     number of atoms/cell      =            4
     number of atomic types    =            1
     number of electrons       =        16.00
     number of Kohn-Sham states=           12
     kinetic-energy cutoff     =      40.0000  Ry
     charge density cutoff     =     320.0000  Ry
     scf convergence threshold =      1.0E-09
     mixing beta               =       0.7000
     number of iterations used =            8  plain     mixing
     press convergence thresh. =      5.0E-01
     Exchange-correlation= SLA  PW   PSX  PSC
                           (   1   4  10   8   0   0   0)

     celldm(1)=   4.662505  celldm(2)=   0.000000  celldm(3)=   3.162607
     celldm(4)=   0.000000  celldm(5)=   0.000000  celldm(6)=   0.000000

     crystal axes: (cart. coord. in units of alat)
               a(1) = (   0.994749   0.000000   0.000000 )
               a(2) = (  -0.497375   0.861478   0.000000 )
               a(3) = (   0.000000   0.000000   2.468656 )

     reciprocal axes: (cart. coord. in units 2 pi/alat)
               b(1) = (  1.005279  0.580398 -0.000000 )
               b(2) = (  0.000000  1.160796  0.000000 )
               b(3) = (  0.000000 -0.000000  0.405079 )

     PseudoPot. # 1 for C  read from file:
     ./../../pseudos/C.pbesol-n-kjpaw_psl.1.0.0.UPF
     MD5 check sum: f9b2fe17d1f478429498b05d17159f9e
     Pseudo is Projector augmented-wave + core cor, Zval =  4.0
     Generated using &quot;atomic&quot; code by A. Dal Corso  v.6.3
     Shape of augmentation charge: PSQ
     Using radial grid of 1073 points,  4 beta functions with:
                l(1) =   0
                l(2) =   0
                l(3) =   1
                l(4) =   1
     Q(r) pseudized with 0 coefficients

     atomic species   valence    mass     pseudopotential
     C                 4.00    12.01100     C ( 1.00)

     24 Sym. Ops., with inversion, found (12 have fractional translation)

   Cartesian axes

     site n.     atom                  positions (alat units)
         1        C      tau(   1) = (  -0.0000000  -0.0000000   0.6171640  )
         2        C      tau(   2) = (   0.0000000   0.0000000   1.8514921  )
         3        C      tau(   3) = (   0.0000000   0.5743187   0.6171640  )
         4        C      tau(   4) = (   0.4973746   0.2871593   1.8514921  )

     Parameters for Dispersion (Grimme-D2) Correction:
       atom      VdW radius       C_6

        C          2.744         60.710

     number of k points=    57  Gaussian smearing, width (Ry)=  0.0200
                       cart. coord. in units 2pi/alat
        k(    1) = (   0.0000000   0.0000000   0.0000000), wk =   0.0034722
        k(    2) = (   0.0000000   0.0000000   0.1012697), wk =   0.0069444
        k(    3) = (   0.0000000   0.0000000  -0.2025393), wk =   0.0034722
        k(    4) = (   0.0000000   0.0967330   0.0000000), wk =   0.0208333
        k(    5) = (   0.0000000   0.0967330   0.1012697), wk =   0.0416667
        k(    6) = (   0.0000000   0.0967330  -0.2025393), wk =   0.0208333
        k(    7) = (   0.0000000   0.1934660   0.0000000), wk =   0.0208333
        k(    8) = (   0.0000000   0.1934660   0.1012697), wk =   0.0416667
        k(    9) = (   0.0000000   0.1934660  -0.2025393), wk =   0.0208333
        k(   10) = (   0.0000000   0.2901989   0.0000000), wk =   0.0208333
        k(   11) = (   0.0000000   0.2901989   0.1012697), wk =   0.0416667
        k(   12) = (   0.0000000   0.2901989  -0.2025393), wk =   0.0208333
        k(   13) = (   0.0000000   0.3869319   0.0000000), wk =   0.0208333
        k(   14) = (   0.0000000   0.3869319   0.1012697), wk =   0.0416667
        k(   15) = (   0.0000000   0.3869319  -0.2025393), wk =   0.0208333
        k(   16) = (   0.0000000   0.4836649   0.0000000), wk =   0.0208333
        k(   17) = (   0.0000000   0.4836649   0.1012697), wk =   0.0416667
        k(   18) = (   0.0000000   0.4836649  -0.2025393), wk =   0.0208333
        k(   19) = (   0.0000000  -0.5803979   0.0000000), wk =   0.0104167
        k(   20) = (   0.0000000  -0.5803979   0.1012697), wk =   0.0208333
        k(   21) = (   0.0000000  -0.5803979  -0.2025393), wk =   0.0104167
        k(   22) = (   0.0837732   0.1450995   0.0000000), wk =   0.0208333
        k(   23) = (   0.0837732   0.1450995   0.1012697), wk =   0.0416667
        k(   24) = (   0.0837732   0.1450995  -0.2025393), wk =   0.0208333
        k(   25) = (   0.0837732   0.2418324   0.0000000), wk =   0.0416667
        k(   26) = (   0.0837732   0.2418324   0.1012697), wk =   0.0833333
        k(   27) = (   0.0837732   0.2418324  -0.2025393), wk =   0.0416667
        k(   28) = (   0.0837732   0.3385654   0.0000000), wk =   0.0416667
        k(   29) = (   0.0837732   0.3385654   0.1012697), wk =   0.0833333
        k(   30) = (   0.0837732   0.3385654  -0.2025393), wk =   0.0416667
        k(   31) = (   0.0837732   0.4352984   0.0000000), wk =   0.0416667
        k(   32) = (   0.0837732   0.4352984   0.1012697), wk =   0.0833333
        k(   33) = (   0.0837732   0.4352984  -0.2025393), wk =   0.0416667
        k(   34) = (   0.0837732   0.5320314   0.0000000), wk =   0.0416667
        k(   35) = (   0.0837732   0.5320314   0.1012697), wk =   0.0833333
        k(   36) = (   0.0837732   0.5320314  -0.2025393), wk =   0.0416667
        k(   37) = (   0.1675464   0.2901989   0.0000000), wk =   0.0208333
        k(   38) = (   0.1675464   0.2901989   0.1012697), wk =   0.0416667
        k(   39) = (   0.1675464   0.2901989  -0.2025393), wk =   0.0208333
        k(   40) = (   0.1675464   0.3869319   0.0000000), wk =   0.0416667
        k(   41) = (   0.1675464   0.3869319   0.1012697), wk =   0.0833333
        k(   42) = (   0.1675464   0.3869319  -0.2025393), wk =   0.0416667
        k(   43) = (   0.1675464   0.4836649   0.0000000), wk =   0.0416667
        k(   44) = (   0.1675464   0.4836649   0.1012697), wk =   0.0833333
        k(   45) = (   0.1675464   0.4836649  -0.2025393), wk =   0.0416667
        k(   46) = (   0.1675464   0.5803979   0.0000000), wk =   0.0208333
        k(   47) = (   0.1675464   0.5803979   0.1012697), wk =   0.0416667
        k(   48) = (   0.1675464   0.5803979  -0.2025393), wk =   0.0208333
        k(   49) = (   0.2513196   0.4352984   0.0000000), wk =   0.0208333
        k(   50) = (   0.2513196   0.4352984   0.1012697), wk =   0.0416667
        k(   51) = (   0.2513196   0.4352984  -0.2025393), wk =   0.0208333
        k(   52) = (   0.2513196   0.5320314   0.0000000), wk =   0.0416667
        k(   53) = (   0.2513196   0.5320314   0.1012697), wk =   0.0833333
        k(   54) = (   0.2513196   0.5320314  -0.2025393), wk =   0.0416667
        k(   55) = (   0.3350929   0.5803979   0.0000000), wk =   0.0069444
        k(   56) = (   0.3350929   0.5803979   0.1012697), wk =   0.0138889
        k(   57) = (   0.3350929   0.5803979  -0.2025393), wk =   0.0069444

     Check: negative core charge=   -0.000012

     Initial potential from superposition of free atoms

     starting charge      15.9998, renormalised to      16.0000
     Starting wfcs are   16 randomized atomic wfcs
     Checking if some PAW data can be deallocated...

     Self-consistent Calculation

[...]

     iteration #  4     ecut=    40.00 Ry     beta= 0.70
     Davidson diagonalization with overlap
     c_bands:  1 eigenvalues not converged
     c_bands:  1 eigenvalues not converged
     ethr =  1.88E-06,  avg # of iterations =  3.3

[...]

     total energy              =     -72.50257353 Ry
     estimated scf accuracy    <          1.6E-09 Ry

     iteration #  8     ecut=    40.00 Ry     beta= 0.70
     Davidson diagonalization with overlap
     ethr =  1.03E-11,  avg # of iterations =  2.2

     End of self-consistent calculation

[...]

          k = 0.3351 0.5804-0.2025 (   900 PWs)   bands (ev):

    -4.3913  -4.3913  -4.3715  -4.3715  -2.5129  -2.5129   8.1234   8.1234
     8.1701   8.1701  18.0662  18.0662

     the Fermi energy is     8.1200 ev

!    total energy              =     -72.50257353 Ry
     total all-electron energy =      -303.618685 Ry
     estimated scf accuracy    <          1.2E-11 Ry
     smearing contrib. (-TS)   =      -0.00038757 Ry
     internal energy E=F+TS    =     -72.50218596 Ry

     The total energy is F=E-TS. E is the sum of the following terms:
     one-electron contribution =      -3.11892941 Ry
     hartree contribution      =      10.63683134 Ry
     xc contribution           =     -18.39365522 Ry
     ewald contribution        =     -38.01832807 Ry
     Dispersion Correction     =      -0.04495774 Ry
     one-center paw contrib.   =     -23.56314685 Ry

     convergence has been achieved in   8 iterations

     Forces acting on atoms (cartesian axes, Ry/au):

     atom    1 type  1   force =     0.00000000   -0.00000000    0.00000000
     atom    2 type  1   force =     0.00000000    0.00000000    0.00000000
     atom    3 type  1   force =     0.00000000   -0.00000000    0.00000000
     atom    4 type  1   force =    -0.00000000    0.00000000    0.00000000

     Total force =     0.000000     Total SCF correction =     0.000000

     Computing stress (Cartesian axis) and pressure

          total   stress  (Ry/bohr**3)                   (kbar)     P=       -5.44
  -0.00002918   0.00000000   0.00000000           -4.29        0.00        0.00
   0.00000000  -0.00002918  -0.00000000            0.00       -4.29       -0.00
   0.00000000  -0.00000000  -0.00005266            0.00       -0.00       -7.75

     Writing all to output data dir ./temp/graphite.save/ :
     XML data file, charge density, pseudopotentials, collected wavefunctions

     General routines

     Parallel routines

   This run was terminated on:  22:20:54  25Dec2024

   JOB DONE.