     Program PWSCF v.7.3.1 starts on 31Jan2025 at 17: 5:31

     Reading input from vc_relax.in

     Current dimensions of program PWSCF are:
     Max number of different atomic species (ntypx) = 10
     Max number of k-points (npk) =  40000
     Max angular momentum in pseudopotentials (lmaxx) =  4
     file Mn.pbe-spn-kjpaw_psl.0.3.1.UPF: wavefunction(s)  3P 3D renormalized
     file Mn.pbe-spn-kjpaw_psl.0.3.1.UPF: wavefunction(s)  3P 3D renormalized
     file S.pbe-n-kjpaw_psl.1.0.0.UPF: wavefunction(s)  3S 3P renormalized
     Message from routine setup:
     using ibrav=0 with symmetry is DISCOURAGED, use correct ibrav instead

     R & G space division:  proc/nbgrp/npool/nimage =       6
     Subspace diagonalization in iterative solution of the eigenvalue problem:
     a serial algorithm will be used

     Using Slab Decomposition

     bravais-lattice index     =            0
     lattice parameter (alat)  =      14.7866  a.u.
     unit-cell volume          =     571.5148 (a.u.)^3
     number of atoms/cell      =            4
     number of atomic types    =            3
     number of electrons       =        42.00
     number of Kohn-Sham states=           25
     kinetic-energy cutoff     =      30.0000  Ry
     charge density cutoff     =     150.0000  Ry
     scf convergence threshold =      1.0E-10
     mixing beta               =       0.7000
     number of iterations used =            8  plain     mixing
     energy convergence thresh.=      1.0E-05
     force convergence thresh. =      1.0E-04
     press convergence thresh. =      5.0E-01
     Exchange-correlation= SLA  PW   PBX  PBC
                           (   1   4   3   4   0   0   0)
     nstep                     =           50

     celldm(1)=  14.786571  celldm(2)=   0.000000  celldm(3)=   0.000000
     celldm(4)=   0.000000  celldm(5)=   0.000000  celldm(6)=   0.000000

     crystal axes: (cart. coord. in units of alat)
               a(1) = (   1.000000   0.000000   0.000000 )
               a(2) = (   0.250000   0.433013   0.000000 )
               a(3) = (   0.250000   0.144338   0.408248 )

     reciprocal axes: (cart. coord. in units 2 pi/alat)
               b(1) = (  1.000000 -0.577350 -0.408248 )
               b(2) = (  0.000000  2.309401 -0.816496 )
               b(3) = (  0.000000  0.000000  2.449490 )

     PseudoPot. # 1 for Mn read from file:
     ./../../../pseudos/Mn.pbe-spn-kjpaw_psl.0.3.1.UPF
     MD5 check sum: ba19e6d7ccbc12830efad05ba8577d9c
     Pseudo is Projector augmented-wave + core cor, Zval = 15.0
     Generated using &quot;atomic&quot; code by A. Dal Corso  v.6.2.2
     Shape of augmentation charge: PSQ
     Using radial grid of 1187 points,  6 beta functions with:
                l(1) =   0
                l(2) =   0
                l(3) =   1
                l(4) =   1
                l(5) =   2
                l(6) =   2
     Q(r) pseudized with 0 coefficients

[...]

     PseudoPot. # 3 for S  read from file:
     ./../../../pseudos/S.pbe-n-kjpaw_psl.1.0.0.UPF
     MD5 check sum: fb45dfebcf3e72a4e1bd4a866ec2e262
     Pseudo is Projector augmented-wave + core cor, Zval =  6.0
     Generated using &quot;atomic&quot; code by A. Dal Corso  v.6.3
     Shape of augmentation charge: PSQ
     Using radial grid of 1151 points,  6 beta functions with:
                l(1) =   0
                l(2) =   0
                l(3) =   1
                l(4) =   1
                l(5) =   2
                l(6) =   2
     Q(r) pseudized with 0 coefficients

     atomic species   valence    mass     pseudopotential
     Mn1              15.00    54.93800     Mn( 1.00)
     Mn2              15.00    54.93800     Mn( 1.00)
     S                 6.00    32.06500     S ( 1.00)

     Starting magnetic structure
     atomic species   magnetization
     Mn1             0.200
     Mn2            -0.200
     S               0.000

      2 Sym. Ops. (no inversion) found

                                    s                        frac. trans.

      isym =  1     identity

 cryst.   s( 1) = (     1          0          0      )
                  (     0          1          0      )
                  (     0          0          1      )

 cart.    s( 1) = (  1.0000000  0.0000000  0.0000000 )
                  (  0.0000000  1.0000000  0.0000000 )
                  (  0.0000000  0.0000000  1.0000000 )

      isym =  2     inv. 180 deg rotation - cryst. axis [1,1,0]

[...]

   Cartesian axes

     site n.     atom                  positions (alat units)
         1        Mn1    tau(   1) = (   0.7465133   0.4350257   0.3076151  )
         2        Mn2    tau(   2) = (   1.2465120   0.4350265   0.3076157  )
         3        S      tau(   3) = (   0.5034875   0.5753367   0.4068191  )
         4        S      tau(   4) = (   1.0034870   0.5753370   0.4068193  )

   Crystallographic axes

     site n.     atom                  positions (cryst. coord.)
         1        Mn1    tau(   1) = (  0.3697678  0.7534822  0.7535000  )
         2        Mn2    tau(   2) = (  0.8697658  0.7534835  0.7535014  )
         3        S      tau(   3) = (  0.0052336  0.9965169  0.9964991  )
         4        S      tau(   4) = (  0.5052328  0.9965174  0.9964995  )

     number of k points=    38  Gaussian smearing, width (Ry)=  0.0100
                       cart. coord. in units 2pi/alat
        k(    1) = (   0.0000000   0.0000000   0.0000000), wk =   0.0133333
        k(    2) = (   0.0000000   0.0000000   0.4898979), wk =   0.0266667
        k(    3) = (   0.0000000   0.0000000   0.9797958), wk =   0.0266667
        k(    4) = (   0.0000000   0.4618802  -0.1632993), wk =   0.0266667
        k(    5) = (   0.0000000   0.4618802   0.3265986), wk =   0.0266667
        k(    6) = (   0.0000000   0.4618802   0.8164966), wk =   0.0266667
        k(    7) = (   0.0000000   0.4618802  -1.1430951), wk =   0.0266667
        k(    8) = (   0.0000000   0.4618802  -0.6531972), wk =   0.0266667
        k(    9) = (   0.0000000   0.9237604  -0.3265986), wk =   0.0266667
        k(   10) = (   0.0000000   0.9237604   0.1632993), wk =   0.0266667
        k(   11) = (   0.0000000   0.9237604   0.6531973), wk =   0.0266667
        k(   12) = (   0.0000000   0.9237604  -1.3063944), wk =   0.0266667
        k(   13) = (   0.0000000   0.9237604  -0.8164965), wk =   0.0266667
        k(   14) = (   0.3333333  -0.1924501  -0.1360827), wk =   0.0266667
        k(   15) = (   0.3333333  -0.1924501   0.3538152), wk =   0.0266667
        k(   16) = (   0.3333333  -0.1924501   0.8437131), wk =   0.0266667
        k(   17) = (   0.3333333  -0.1924501  -1.1158786), wk =   0.0266667
        k(   18) = (   0.3333333  -0.1924501  -0.6259807), wk =   0.0266667
        k(   19) = (   0.3333333   0.2694301  -0.2993820), wk =   0.0266667
        k(   20) = (   0.3333333   0.2694301   0.1905159), wk =   0.0266667
        k(   21) = (   0.3333333   0.2694301   0.6804138), wk =   0.0266667
        k(   22) = (   0.3333333   0.2694301  -1.2791779), wk =   0.0266667
        k(   23) = (   0.3333333   0.2694301  -0.7892800), wk =   0.0266667
        k(   24) = (   0.3333333   0.7313103  -0.4626813), wk =   0.0266667
        k(   25) = (   0.3333333   0.7313103   0.0272166), wk =   0.0266667
        k(   26) = (   0.3333333   0.7313103   0.5171145), wk =   0.0266667
        k(   27) = (   0.3333333   0.7313103  -1.4424772), wk =   0.0266667
        k(   28) = (   0.3333333   0.7313103  -0.9525793), wk =   0.0266667
        k(   29) = (   0.3333333  -1.1162105   0.1905158), wk =   0.0266667
        k(   30) = (   0.3333333  -1.1162105   0.6804138), wk =   0.0266667
        k(   31) = (   0.3333333  -1.1162105   1.1703117), wk =   0.0266667
        k(   32) = (   0.3333333  -1.1162105  -0.7892800), wk =   0.0266667
        k(   33) = (   0.3333333  -1.1162105  -0.2993821), wk =   0.0266667
        k(   34) = (   0.3333333  -0.6543303   0.0272165), wk =   0.0266667
        k(   35) = (   0.3333333  -0.6543303   0.5171145), wk =   0.0266667
        k(   36) = (   0.3333333  -0.6543303   1.0070124), wk =   0.0266667
        k(   37) = (   0.3333333  -0.6543303  -0.9525793), wk =   0.0266667
        k(   38) = (   0.3333333  -0.6543303  -0.4626814), wk =   0.0266667

                       cryst. coord.
        k(    1) = (   0.0000000   0.0000000   0.0000000), wk =   0.0133333
        k(    2) = (   0.0000000   0.0000000   0.2000000), wk =   0.0266667
        k(    3) = (   0.0000000   0.0000000   0.4000000), wk =   0.0266667
        k(    4) = (   0.0000000   0.2000000   0.0000000), wk =   0.0266667
        k(    5) = (   0.0000000   0.2000000   0.2000000), wk =   0.0266667
        k(    6) = (   0.0000000   0.2000000   0.4000000), wk =   0.0266667
        k(    7) = (   0.0000000   0.2000000  -0.4000000), wk =   0.0266667
        k(    8) = (   0.0000000   0.2000000  -0.2000000), wk =   0.0266667
        k(    9) = (   0.0000000   0.4000000   0.0000000), wk =   0.0266667
        k(   10) = (   0.0000000   0.4000000   0.2000000), wk =   0.0266667
        k(   11) = (   0.0000000   0.4000000   0.4000000), wk =   0.0266667
        k(   12) = (   0.0000000   0.4000000  -0.4000000), wk =   0.0266667
        k(   13) = (   0.0000000   0.4000000  -0.2000000), wk =   0.0266667
        k(   14) = (   0.3333333  -0.0000000  -0.0000000), wk =   0.0266667
        k(   15) = (   0.3333333  -0.0000000   0.2000000), wk =   0.0266667
        k(   16) = (   0.3333333  -0.0000000   0.4000000), wk =   0.0266667
        k(   17) = (   0.3333333  -0.0000000  -0.4000000), wk =   0.0266667
        k(   18) = (   0.3333333  -0.0000000  -0.2000000), wk =   0.0266667
        k(   19) = (   0.3333333   0.2000000  -0.0000000), wk =   0.0266667
        k(   20) = (   0.3333333   0.2000000   0.2000000), wk =   0.0266667
        k(   21) = (   0.3333333   0.2000000   0.4000000), wk =   0.0266667
        k(   22) = (   0.3333333   0.2000000  -0.4000000), wk =   0.0266667
        k(   23) = (   0.3333333   0.2000000  -0.2000000), wk =   0.0266667
        k(   24) = (   0.3333333   0.4000000   0.0000000), wk =   0.0266667
        k(   25) = (   0.3333333   0.4000000   0.2000000), wk =   0.0266667
        k(   26) = (   0.3333333   0.4000000   0.4000000), wk =   0.0266667
        k(   27) = (   0.3333333   0.4000000  -0.4000000), wk =   0.0266667
        k(   28) = (   0.3333333   0.4000000  -0.2000000), wk =   0.0266667
        k(   29) = (   0.3333333  -0.4000000   0.0000000), wk =   0.0266667
        k(   30) = (   0.3333333  -0.4000000   0.2000000), wk =   0.0266667
        k(   31) = (   0.3333333  -0.4000000   0.4000000), wk =   0.0266667
        k(   32) = (   0.3333333  -0.4000000  -0.4000000), wk =   0.0266667
        k(   33) = (   0.3333333  -0.4000000  -0.2000000), wk =   0.0266667
        k(   34) = (   0.3333333  -0.2000000  -0.0000000), wk =   0.0266667
        k(   35) = (   0.3333333  -0.2000000   0.2000000), wk =   0.0266667
        k(   36) = (   0.3333333  -0.2000000   0.4000000), wk =   0.0266667
        k(   37) = (   0.3333333  -0.2000000  -0.4000000), wk =   0.0266667
        k(   38) = (   0.3333333  -0.2000000  -0.2000000), wk =   0.0266667

[...]
         1        Mn1    tau(   1) = (  0.3721139  0.7519013  0.7519695  )
         2        Mn2    tau(   2) = (  0.8721135  0.7519016  0.7519698  )
         3        S      tau(   3) = (  0.0028865  0.9980984  0.9980302  )
         4        S      tau(   4) = (  0.5028861  0.9980986  0.9980304  )

     number of k points=    38  Gaussian smearing, width (Ry)=  0.0100
                       cart. coord. in units 2pi/alat
        k(    1) = (   0.0000000   0.0000000   0.0000000), wk =   0.0133333
        k(    2) = (  -0.0033041   0.0019076   0.5243868), wk =   0.0266667
        k(    3) = (  -0.0066082   0.0038152   1.0487737), wk =   0.0266667
        k(    4) = (  -0.0032134   0.4949947  -0.1729968), wk =   0.0266667
        k(    5) = (  -0.0065175   0.4969023   0.3513900), wk =   0.0266667
        k(    6) = (  -0.0098216   0.4988099   0.8757768), wk =   0.0266667
        k(    7) = (   0.0033948   0.4911794  -1.2217705), wk =   0.0266667
        k(    8) = (   0.0000907   0.4930870  -0.6973837), wk =   0.0266667
        k(    9) = (  -0.0064268   0.9899893  -0.3459937), wk =   0.0266667
        k(   10) = (  -0.0097309   0.9918969   0.1783931), wk =   0.0266667
        k(   11) = (  -0.0130350   0.9938046   0.7027800), wk =   0.0266667
        k(   12) = (   0.0001814   0.9861741  -1.3947673), wk =   0.0266667
        k(   13) = (  -0.0031227   0.9880817  -0.8703805), wk =   0.0266667
        k(   14) = (   0.3640018  -0.2101565  -0.1486609), wk =   0.0266667
        k(   15) = (   0.3606977  -0.2082489   0.3757259), wk =   0.0266667
        k(   16) = (   0.3573936  -0.2063413   0.9001127), wk =   0.0266667
        k(   17) = (   0.3706100  -0.2139718  -1.1974346), wk =   0.0266667
        k(   18) = (   0.3673059  -0.2120641  -0.6730477), wk =   0.0266667
        k(   19) = (   0.3607884   0.2848382  -0.3216578), wk =   0.0266667
        k(   20) = (   0.3574843   0.2867458   0.2027291), wk =   0.0266667
        k(   21) = (   0.3541802   0.2886534   0.7271159), wk =   0.0266667
        k(   22) = (   0.3673966   0.2810229  -1.3704314), wk =   0.0266667
        k(   23) = (   0.3640925   0.2829305  -0.8460446), wk =   0.0266667
        k(   24) = (   0.3575750   0.7798328  -0.4946546), wk =   0.0266667
        k(   25) = (   0.3542709   0.7817404   0.0297322), wk =   0.0266667
        k(   26) = (   0.3509668   0.7836481   0.5541191), wk =   0.0266667
        k(   27) = (   0.3641832   0.7760176  -1.5434283), wk =   0.0266667
        k(   28) = (   0.3608791   0.7779252  -1.0190414), wk =   0.0266667
        k(   29) = (   0.3704286  -1.2001458   0.1973328), wk =   0.0266667
        k(   30) = (   0.3671245  -1.1982382   0.7217196), wk =   0.0266667
        k(   31) = (   0.3638204  -1.1963306   1.2461064), wk =   0.0266667
        k(   32) = (   0.3770368  -1.2039611  -0.8514409), wk =   0.0266667
        k(   33) = (   0.3737327  -1.2020534  -0.3270541), wk =   0.0266667
        k(   34) = (   0.3672152  -0.7051512   0.0243359), wk =   0.0266667
        k(   35) = (   0.3639111  -0.7032435   0.5487227), wk =   0.0266667
        k(   36) = (   0.3606070  -0.7013359   1.0731096), wk =   0.0266667
        k(   37) = (   0.3738234  -0.7089664  -1.0244377), wk =   0.0266667
        k(   38) = (   0.3705193  -0.7070588  -0.5000509), wk =   0.0266667

                       cryst. coord.
        k(    1) = (   0.0000000   0.0000000   0.0000000), wk =   0.0133333
        k(    2) = (   0.0000000   0.0000000   0.2000000), wk =   0.0266667
        k(    3) = (   0.0000000   0.0000000   0.4000000), wk =   0.0266667
        k(    4) = (  -0.0000000   0.2000000   0.0000000), wk =   0.0266667
        k(    5) = (  -0.0000000   0.2000000   0.2000000), wk =   0.0266667
        k(    6) = (   0.0000000   0.2000000   0.4000000), wk =   0.0266667
        k(    7) = (  -0.0000000   0.2000000  -0.4000000), wk =   0.0266667
        k(    8) = (  -0.0000000   0.2000000  -0.2000000), wk =   0.0266667
        k(    9) = (  -0.0000000   0.4000000   0.0000000), wk =   0.0266667
        k(   10) = (  -0.0000000   0.4000000   0.2000000), wk =   0.0266667
        k(   11) = (  -0.0000000   0.4000000   0.4000000), wk =   0.0266667
        k(   12) = (  -0.0000000   0.4000000  -0.4000000), wk =   0.0266667
        k(   13) = (  -0.0000000   0.4000000  -0.2000000), wk =   0.0266667
        k(   14) = (   0.3333333  -0.0000000  -0.0000000), wk =   0.0266667
        k(   15) = (   0.3333333  -0.0000000   0.2000000), wk =   0.0266667
        k(   16) = (   0.3333333  -0.0000000   0.4000000), wk =   0.0266667
        k(   17) = (   0.3333333  -0.0000000  -0.4000000), wk =   0.0266667
        k(   18) = (   0.3333333   0.0000000  -0.2000000), wk =   0.0266667
        k(   19) = (   0.3333333   0.2000000  -0.0000000), wk =   0.0266667
        k(   20) = (   0.3333333   0.2000000   0.2000000), wk =   0.0266667
        k(   21) = (   0.3333333   0.2000000   0.4000000), wk =   0.0266667
        k(   22) = (   0.3333333   0.2000000  -0.4000000), wk =   0.0266667
        k(   23) = (   0.3333333   0.2000000  -0.2000000), wk =   0.0266667
        k(   24) = (   0.3333333   0.4000000  -0.0000000), wk =   0.0266667
        k(   25) = (   0.3333333   0.4000000   0.2000000), wk =   0.0266667
        k(   26) = (   0.3333333   0.4000000   0.4000000), wk =   0.0266667
        k(   27) = (   0.3333333   0.4000000  -0.4000000), wk =   0.0266667
        k(   28) = (   0.3333333   0.4000000  -0.2000000), wk =   0.0266667
        k(   29) = (   0.3333333  -0.4000000  -0.0000000), wk =   0.0266667
        k(   30) = (   0.3333333  -0.4000000   0.2000000), wk =   0.0266667
        k(   31) = (   0.3333333  -0.4000000   0.4000000), wk =   0.0266667
        k(   32) = (   0.3333333  -0.4000000  -0.4000000), wk =   0.0266667
        k(   33) = (   0.3333333  -0.4000000  -0.2000000), wk =   0.0266667
        k(   34) = (   0.3333333  -0.2000000  -0.0000000), wk =   0.0266667
        k(   35) = (   0.3333333  -0.2000000   0.2000000), wk =   0.0266667
        k(   36) = (   0.3333333  -0.2000000   0.4000000), wk =   0.0266667
        k(   37) = (   0.3333333  -0.2000000  -0.4000000), wk =   0.0266667
        k(   38) = (   0.3333333  -0.2000000  -0.2000000), wk =   0.0266667

     Check: negative core charge=   -0.000251
     Generating pointlists ...

     Initial potential from superposition of free atoms

     starting charge      41.9989, renormalised to      42.0000
     Starting wfcs are   28 randomized atomic wfcs
     Checking if some PAW data can be deallocated...

     Self-consistent Calculation

[...]

     c_bands:  1 eigenvalues not converged
     c_bands:  1 eigenvalues not converged
     c_bands:  1 eigenvalues not converged
     c_bands:  2 eigenvalues not converged
     c_bands:  2 eigenvalues not converged
     c_bands:  2 eigenvalues not converged
     c_bands:  1 eigenvalues not converged
     c_bands:  4 eigenvalues not converged
     c_bands:  2 eigenvalues not converged
     c_bands:  2 eigenvalues not converged
     c_bands:  1 eigenvalues not converged
     c_bands:  2 eigenvalues not converged
     c_bands:  2 eigenvalues not converged
     c_bands:  1 eigenvalues not converged
     c_bands:  2 eigenvalues not converged
     c_bands:  1 eigenvalues not converged
     c_bands:  1 eigenvalues not converged
     c_bands:  2 eigenvalues not converged
     c_bands:  2 eigenvalues not converged
     c_bands:  1 eigenvalues not converged
     c_bands:  2 eigenvalues not converged
     c_bands:  2 eigenvalues not converged
     c_bands:  1 eigenvalues not converged
     c_bands:  1 eigenvalues not converged
     c_bands:  1 eigenvalues not converged
     c_bands:  1 eigenvalues not converged
     c_bands:  1 eigenvalues not converged
     c_bands:  1 eigenvalues not converged
     c_bands:  1 eigenvalues not converged
     c_bands:  2 eigenvalues not converged
     c_bands:  2 eigenvalues not converged
     c_bands:  2 eigenvalues not converged
     c_bands:  1 eigenvalues not converged
     c_bands:  1 eigenvalues not converged
     c_bands:  2 eigenvalues not converged
     c_bands:  2 eigenvalues not converged
     c_bands:  1 eigenvalues not converged
     c_bands:  2 eigenvalues not converged
     c_bands:  2 eigenvalues not converged
     c_bands:  2 eigenvalues not converged
     c_bands:  3 eigenvalues not converged
     c_bands:  4 eigenvalues not converged
     c_bands:  2 eigenvalues not converged
     c_bands:  1 eigenvalues not converged
     c_bands:  2 eigenvalues not converged
     c_bands:  2 eigenvalues not converged
     c_bands:  1 eigenvalues not converged
     c_bands:  1 eigenvalues not converged
     c_bands:  1 eigenvalues not converged
     c_bands:  1 eigenvalues not converged
     ethr =  1.00E-06,  avg # of iterations = 18.9

[...]

     total energy              =    -705.51317522 Ry
     estimated scf accuracy    <          1.2E-12 Ry

[...]

     iteration # 19     ecut=    30.00 Ry     beta= 0.70
     Davidson diagonalization with overlap

     ethr =  1.00E-13,  avg # of iterations =  1.0

     Magnetic moment per site  (integrated on atomic sphere of radius R)
     atom   1 (R=0.114)  charge= 12.6000  magn=  3.1512
     atom   2 (R=0.114)  charge= 12.5999  magn= -3.1512
     atom   3 (R=0.114)  charge=  3.5474  magn= -0.0293
     atom   4 (R=0.114)  charge=  3.5475  magn=  0.0293

     End of self-consistent calculation

 ------ SPIN UP ------------

[...]

 ------ SPIN DOWN ----------

[...]

          k =-0.0031 0.9881-0.8704 (  1285 PWs)   bands (ev):

[...]

          k = 0.3705-0.7071-0.5001 (  1270 PWs)   bands (ev):

   -71.1554 -67.4736 -39.9423 -39.9402 -39.8247 -36.3052 -36.2684 -36.2653
    -3.9174  -3.5825   4.4356   4.7387   5.4831   5.5718   6.0846   6.3117
     7.8580   7.9885   9.6623   9.8884  10.2016  11.2031  11.3601  12.1912
    12.8553

     occupation numbers
     1.0000   1.0000   1.0000   1.0000   1.0000   1.0000   1.0000   1.0000
     1.0000   1.0000   1.0000   1.0000   1.0000   1.0000   1.0000   1.0000
     1.0000   1.0000   1.0000   1.0000   0.9966   0.0000   0.0000   0.0000
     0.0000

     the Fermi energy is    10.4624 ev

!    total energy              =    -705.51317522 Ry
     total all-electron energy =     -6231.229982 Ry
     estimated scf accuracy    <          3.2E-13 Ry
     smearing contrib. (-TS)   =      -0.00093234 Ry
     internal energy E=F+TS    =    -705.51224288 Ry

     The total energy is F=E-TS. E is the sum of the following terms:
     one-electron contribution =    -273.74391854 Ry
     hartree contribution      =     157.96739031 Ry
     xc contribution           =     -66.37877376 Ry
     ewald contribution        =    -275.82283794 Ry
     one-center paw contrib.   =    -247.53410294 Ry
      -> PAW hartree energy AE =     179.47093646 Ry
      -> PAW hartree energy PS =    -180.42766618 Ry
      -> PAW xc energy AE      =    -104.65986326 Ry
      -> PAW xc energy PS      =      27.99201724 Ry
      -> total E_H with PAW    =     157.01066059 Ry
      -> total E_XC with PAW   =    -143.04661977 Ry

     total magnetization       =    -0.00 Bohr mag/cell
     absolute magnetization    =     7.56 Bohr mag/cell

     convergence has been achieved in  19 iterations

     Forces acting on atoms (cartesian axes, Ry/au):

     atom    1 type  1   force =     0.00033578   -0.00019386   -0.00014226
     atom    2 type  2   force =     0.00033648   -0.00019427   -0.00014259
     atom    3 type  3   force =    -0.00033615    0.00019408    0.00014244
     atom    4 type  3   force =    -0.00033611    0.00019405    0.00014241
     The non-local contrib.  to forces
     atom    1 type  1   force =    -0.00831026    0.00479793    0.00366793
     atom    2 type  2   force =    -0.00831130    0.00479853    0.00366834
     atom    3 type  3   force =    -0.00719382    0.00415335    0.00292947
     atom    4 type  3   force =    -0.00719318    0.00415298    0.00292921
     The ionic contribution  to forces
     atom    1 type  1   force =     0.60572197   -0.34971593   -0.24721388
     atom    2 type  2   force =     0.60578084   -0.34974882   -0.24723780
     atom    3 type  3   force =    -0.60574379    0.34972729    0.24722292
     atom    4 type  3   force =    -0.60575902    0.34973746    0.24722876
     The local contribution  to forces
     atom    1 type  1   force =    -0.60369663    0.34854534    0.24612898
     atom    2 type  2   force =    -0.60373516    0.34861005    0.24615231
     atom    3 type  3   force =     0.61195125   -0.35331183   -0.24974832
     atom    4 type  3   force =     0.61196632   -0.35332049   -0.24975384
     The core correction contribution to forces
     atom    1 type  1   force =     0.00672640   -0.00388350   -0.00277140
     atom    2 type  2   force =     0.00672705   -0.00388343   -0.00277160
     atom    3 type  3   force =     0.00075639   -0.00043670   -0.00030782
     atom    4 type  3   force =     0.00075638   -0.00043669   -0.00030781
     The Hubbard contrib.    to forces
     atom    1 type  1   force =     0.00000000    0.00000000    0.00000000
     atom    2 type  2   force =     0.00000000    0.00000000    0.00000000
     atom    3 type  3   force =     0.00000000    0.00000000    0.00000000
     atom    4 type  3   force =     0.00000000    0.00000000    0.00000000
     The SCF correction term to forces
     atom    1 type  1   force =     0.00000015   -0.00000008   -0.00000004
     atom    2 type  2   force =    -0.00000004    0.00000002    0.00000001
     atom    3 type  3   force =    -0.00000008    0.00000004    0.00000003
     atom    4 type  3   force =     0.00000011   -0.00000006   -0.00000005

     Total force =     0.000827     Total SCF correction =     0.000000

     Computing stress (Cartesian axis) and pressure

          total   stress  (Ry/bohr**3)                   (kbar)     P=     -342.95
  -0.00237293   0.00005199   0.00003942         -349.07        7.65        5.80
   0.00005199  -0.00231289  -0.00002276            7.65     -340.24       -3.35
   0.00003942  -0.00002276  -0.00230817            5.80       -3.35     -339.54

     kinetic stress (kbar)  19607.83    -30.20    -21.27
                              -30.20  19572.95     12.28
                              -21.27     12.28  19562.38

     local   stress (kbar)  -1169.42   1599.47   1125.69
                             1599.47    677.49   -649.92
                             1125.69   -649.92   1147.69

     nonloc. stress (kbar)  -1231.97     16.28     11.45
                               16.28  -1213.16     -6.61
                               11.45     -6.61  -1208.25

     hartree stress (kbar)  17350.16   -552.47   -388.94
                             -552.47  16712.23    224.56
                             -388.94    224.56  16550.36

     exc-cor stress (kbar)  -2981.02     -2.58     -1.83
                               -2.58  -2984.00      1.05
                               -1.83      1.05  -2984.77

     corecor stress (kbar)  -3354.38     -0.23     -0.07
                               -0.23  -3354.64      0.04
                               -0.07      0.04  -3354.70

     ewald   stress (kbar) -28570.27  -1022.63   -719.23
                            -1022.63 -29751.11    415.25
                             -719.23    415.25 -30052.25

     hubbard stress (kbar)      0.00      0.00      0.00
                                0.00      0.00      0.00
                                0.00      0.00      0.00

     DFT-D   stress (kbar)      0.00      0.00      0.00
                                0.00      0.00      0.00
                                0.00      0.00      0.00

     XDM     stress (kbar)      0.00      0.00      0.00
                                0.00      0.00      0.00
                                0.00      0.00      0.00

     dft-nl  stress (kbar)      0.00      0.00      0.00
                                0.00      0.00      0.00
                                0.00      0.00      0.00

     TS-vdW  stress (kbar)      0.00      0.00      0.00
                                0.00      0.00      0.00
                                0.00      0.00      0.00

     MDB     stress (kbar)      0.00      0.00      0.00
                                0.00      0.00      0.00
                                0.00      0.00      0.00

     3D-RISM stress (kbar)      0.00      0.00      0.00
                                0.00      0.00      0.00
                                0.00      0.00      0.00

     Writing all to output data dir ./temp/mns.save/ :
     XML data file, charge density, pseudopotentials, collected wavefunctions

     General routines

     Parallel routines

     PAW routines

   This run was terminated on:  17:14: 7  31Jan2025

   JOB DONE.