     Program PWSCF v.7.3.1 starts on 19Jan2025 at 10:22: 2

     Reading input from vc_relax.in

     Current dimensions of program PWSCF are:
     Max number of different atomic species (ntypx) = 10
     Max number of k-points (npk) =  40000
     Max angular momentum in pseudopotentials (lmaxx) =  4
     file Mn.pbe-spn-kjpaw_psl.0.3.1.UPF: wavefunction(s)  3P 3D renormalized
     file Mn.pbe-spn-kjpaw_psl.0.3.1.UPF: wavefunction(s)  3P 3D renormalized
     file S.pbe-n-kjpaw_psl.1.0.0.UPF: wavefunction(s)  3S 3P renormalized
     Message from routine setup:
     using ibrav=0 with symmetry is DISCOURAGED, use correct ibrav instead

     R & G space division:  proc/nbgrp/npool/nimage =       6
     Subspace diagonalization in iterative solution of the eigenvalue problem:
     a serial algorithm will be used

     Using Slab Decomposition

     bravais-lattice index     =            0
     lattice parameter (alat)  =      14.7866  a.u.
     unit-cell volume          =     571.5148 (a.u.)^3
     number of atoms/cell      =            4
     number of atomic types    =            3
     number of electrons       =        42.00
     number of Kohn-Sham states=           25
     kinetic-energy cutoff     =      30.0000  Ry
     charge density cutoff     =     150.0000  Ry
     scf convergence threshold =      1.0E-10
     mixing beta               =       0.7000
     number of iterations used =            8  plain     mixing
     energy convergence thresh.=      1.0E-05
     force convergence thresh. =      1.0E-04
     press convergence thresh. =      5.0E-01
     Exchange-correlation= SLA  PW   PBX  PBC
                           (   1   4   3   4   0   0   0)
     nstep                     =           50

     celldm(1)=  14.786571  celldm(2)=   0.000000  celldm(3)=   0.000000
     celldm(4)=   0.000000  celldm(5)=   0.000000  celldm(6)=   0.000000

     crystal axes: (cart. coord. in units of alat)
               a(1) = (   1.000000   0.000000   0.000000 )
               a(2) = (   0.250000   0.433013   0.000000 )
               a(3) = (   0.250000   0.144338   0.408248 )

     reciprocal axes: (cart. coord. in units 2 pi/alat)
               b(1) = (  1.000000 -0.577350 -0.408248 )
               b(2) = (  0.000000  2.309401 -0.816496 )
               b(3) = (  0.000000  0.000000  2.449490 )

     PseudoPot. # 1 for Mn read from file:
     ./../../../pseudos/Mn.pbe-spn-kjpaw_psl.0.3.1.UPF
     MD5 check sum: ba19e6d7ccbc12830efad05ba8577d9c
     Pseudo is Projector augmented-wave + core cor, Zval = 15.0
     Generated using &quot;atomic&quot; code by A. Dal Corso  v.6.2.2
     Shape of augmentation charge: PSQ
     Using radial grid of 1187 points,  6 beta functions with:
                l(1) =   0
                l(2) =   0
                l(3) =   1
                l(4) =   1
                l(5) =   2
                l(6) =   2
     Q(r) pseudized with 0 coefficients

[...]

     PseudoPot. # 3 for S  read from file:
     ./../../../pseudos/S.pbe-n-kjpaw_psl.1.0.0.UPF
     MD5 check sum: fb45dfebcf3e72a4e1bd4a866ec2e262
     Pseudo is Projector augmented-wave + core cor, Zval =  6.0
     Generated using &quot;atomic&quot; code by A. Dal Corso  v.6.3
     Shape of augmentation charge: PSQ
     Using radial grid of 1151 points,  6 beta functions with:
                l(1) =   0
                l(2) =   0
                l(3) =   1
                l(4) =   1
                l(5) =   2
                l(6) =   2
     Q(r) pseudized with 0 coefficients

     atomic species   valence    mass     pseudopotential
     Mn1              15.00    54.93800     Mn( 1.00)
     Mn2              15.00    54.93800     Mn( 1.00)
     S                 6.00    32.06500     S ( 1.00)

     Starting magnetic structure
     atomic species   magnetization
     Mn1             0.200
     Mn2            -0.200
     S               0.000

      2 Sym. Ops. (no inversion) found

                                    s                        frac. trans.

      isym =  1     identity

 cryst.   s( 1) = (     1          0          0      )
                  (     0          1          0      )
                  (     0          0          1      )

 cart.    s( 1) = (  1.0000000  0.0000000  0.0000000 )
                  (  0.0000000  1.0000000  0.0000000 )
                  (  0.0000000  0.0000000  1.0000000 )

      isym =  2     inv. 180 deg rotation - cryst. axis [1,1,0]

[...]

   Cartesian axes

     site n.     atom                  positions (alat units)
         1        Mn1    tau(   1) = (   0.7465133   0.4350257   0.3076151  )
         2        Mn2    tau(   2) = (   1.2465120   0.4350265   0.3076157  )
         3        S      tau(   3) = (   0.5034875   0.5753367   0.4068191  )
         4        S      tau(   4) = (   1.0034870   0.5753370   0.4068193  )

   Crystallographic axes

     site n.     atom                  positions (cryst. coord.)
         1        Mn1    tau(   1) = (  0.3697678  0.7534822  0.7535000  )
         2        Mn2    tau(   2) = (  0.8697658  0.7534835  0.7535014  )
         3        S      tau(   3) = (  0.0052336  0.9965169  0.9964991  )
         4        S      tau(   4) = (  0.5052328  0.9965174  0.9964995  )

     number of k points=    38  Gaussian smearing, width (Ry)=  0.0100
                       cart. coord. in units 2pi/alat
        k(    1) = (   0.0000000   0.0000000   0.0000000), wk =   0.0133333
        k(    2) = (   0.0000000   0.0000000   0.4898979), wk =   0.0266667
        k(    3) = (   0.0000000   0.0000000   0.9797958), wk =   0.0266667
        k(    4) = (   0.0000000   0.4618802  -0.1632993), wk =   0.0266667
        k(    5) = (   0.0000000   0.4618802   0.3265986), wk =   0.0266667
        k(    6) = (   0.0000000   0.4618802   0.8164966), wk =   0.0266667
        k(    7) = (   0.0000000   0.4618802  -1.1430951), wk =   0.0266667
        k(    8) = (   0.0000000   0.4618802  -0.6531972), wk =   0.0266667
        k(    9) = (   0.0000000   0.9237604  -0.3265986), wk =   0.0266667
        k(   10) = (   0.0000000   0.9237604   0.1632993), wk =   0.0266667
        k(   11) = (   0.0000000   0.9237604   0.6531973), wk =   0.0266667
        k(   12) = (   0.0000000   0.9237604  -1.3063944), wk =   0.0266667
        k(   13) = (   0.0000000   0.9237604  -0.8164965), wk =   0.0266667
        k(   14) = (   0.3333333  -0.1924501  -0.1360827), wk =   0.0266667
        k(   15) = (   0.3333333  -0.1924501   0.3538152), wk =   0.0266667
        k(   16) = (   0.3333333  -0.1924501   0.8437131), wk =   0.0266667
        k(   17) = (   0.3333333  -0.1924501  -1.1158786), wk =   0.0266667
        k(   18) = (   0.3333333  -0.1924501  -0.6259807), wk =   0.0266667
        k(   19) = (   0.3333333   0.2694301  -0.2993820), wk =   0.0266667
        k(   20) = (   0.3333333   0.2694301   0.1905159), wk =   0.0266667
        k(   21) = (   0.3333333   0.2694301   0.6804138), wk =   0.0266667
        k(   22) = (   0.3333333   0.2694301  -1.2791779), wk =   0.0266667
        k(   23) = (   0.3333333   0.2694301  -0.7892800), wk =   0.0266667
        k(   24) = (   0.3333333   0.7313103  -0.4626813), wk =   0.0266667
        k(   25) = (   0.3333333   0.7313103   0.0272166), wk =   0.0266667
        k(   26) = (   0.3333333   0.7313103   0.5171145), wk =   0.0266667
        k(   27) = (   0.3333333   0.7313103  -1.4424772), wk =   0.0266667
        k(   28) = (   0.3333333   0.7313103  -0.9525793), wk =   0.0266667
        k(   29) = (   0.3333333  -1.1162105   0.1905158), wk =   0.0266667
        k(   30) = (   0.3333333  -1.1162105   0.6804138), wk =   0.0266667
        k(   31) = (   0.3333333  -1.1162105   1.1703117), wk =   0.0266667
        k(   32) = (   0.3333333  -1.1162105  -0.7892800), wk =   0.0266667
        k(   33) = (   0.3333333  -1.1162105  -0.2993821), wk =   0.0266667
        k(   34) = (   0.3333333  -0.6543303   0.0272165), wk =   0.0266667
        k(   35) = (   0.3333333  -0.6543303   0.5171145), wk =   0.0266667
        k(   36) = (   0.3333333  -0.6543303   1.0070124), wk =   0.0266667
        k(   37) = (   0.3333333  -0.6543303  -0.9525793), wk =   0.0266667
        k(   38) = (   0.3333333  -0.6543303  -0.4626814), wk =   0.0266667

                       cryst. coord.
        k(    1) = (   0.0000000   0.0000000   0.0000000), wk =   0.0133333
        k(    2) = (   0.0000000   0.0000000   0.2000000), wk =   0.0266667
        k(    3) = (   0.0000000   0.0000000   0.4000000), wk =   0.0266667
        k(    4) = (   0.0000000   0.2000000   0.0000000), wk =   0.0266667
        k(    5) = (   0.0000000   0.2000000   0.2000000), wk =   0.0266667
        k(    6) = (   0.0000000   0.2000000   0.4000000), wk =   0.0266667
        k(    7) = (   0.0000000   0.2000000  -0.4000000), wk =   0.0266667
        k(    8) = (   0.0000000   0.2000000  -0.2000000), wk =   0.0266667
        k(    9) = (   0.0000000   0.4000000   0.0000000), wk =   0.0266667
        k(   10) = (   0.0000000   0.4000000   0.2000000), wk =   0.0266667
        k(   11) = (   0.0000000   0.4000000   0.4000000), wk =   0.0266667
        k(   12) = (   0.0000000   0.4000000  -0.4000000), wk =   0.0266667
        k(   13) = (   0.0000000   0.4000000  -0.2000000), wk =   0.0266667
        k(   14) = (   0.3333333  -0.0000000  -0.0000000), wk =   0.0266667
        k(   15) = (   0.3333333  -0.0000000   0.2000000), wk =   0.0266667
        k(   16) = (   0.3333333  -0.0000000   0.4000000), wk =   0.0266667
        k(   17) = (   0.3333333  -0.0000000  -0.4000000), wk =   0.0266667
        k(   18) = (   0.3333333  -0.0000000  -0.2000000), wk =   0.0266667
        k(   19) = (   0.3333333   0.2000000  -0.0000000), wk =   0.0266667
        k(   20) = (   0.3333333   0.2000000   0.2000000), wk =   0.0266667
        k(   21) = (   0.3333333   0.2000000   0.4000000), wk =   0.0266667
        k(   22) = (   0.3333333   0.2000000  -0.4000000), wk =   0.0266667
        k(   23) = (   0.3333333   0.2000000  -0.2000000), wk =   0.0266667
        k(   24) = (   0.3333333   0.4000000   0.0000000), wk =   0.0266667
        k(   25) = (   0.3333333   0.4000000   0.2000000), wk =   0.0266667
        k(   26) = (   0.3333333   0.4000000   0.4000000), wk =   0.0266667
        k(   27) = (   0.3333333   0.4000000  -0.4000000), wk =   0.0266667
        k(   28) = (   0.3333333   0.4000000  -0.2000000), wk =   0.0266667
        k(   29) = (   0.3333333  -0.4000000   0.0000000), wk =   0.0266667
        k(   30) = (   0.3333333  -0.4000000   0.2000000), wk =   0.0266667
        k(   31) = (   0.3333333  -0.4000000   0.4000000), wk =   0.0266667
        k(   32) = (   0.3333333  -0.4000000  -0.4000000), wk =   0.0266667
        k(   33) = (   0.3333333  -0.4000000  -0.2000000), wk =   0.0266667
        k(   34) = (   0.3333333  -0.2000000  -0.0000000), wk =   0.0266667
        k(   35) = (   0.3333333  -0.2000000   0.2000000), wk =   0.0266667
        k(   36) = (   0.3333333  -0.2000000   0.4000000), wk =   0.0266667
        k(   37) = (   0.3333333  -0.2000000  -0.4000000), wk =   0.0266667
        k(   38) = (   0.3333333  -0.2000000  -0.2000000), wk =   0.0266667

[...]
         1        Mn1    tau(   1) = (  0.3721140  0.7519012  0.7519694  )
         2        Mn2    tau(   2) = (  0.8721137  0.7519014  0.7519696  )
         3        S      tau(   3) = (  0.0028863  0.9980985  0.9980303  )
         4        S      tau(   4) = (  0.5028859  0.9980988  0.9980306  )

     number of k points=    38  Gaussian smearing, width (Ry)=  0.0100
                       cart. coord. in units 2pi/alat
        k(    1) = (   0.0000000   0.0000000   0.0000000), wk =   0.0133333
        k(    2) = (  -0.0033042   0.0019077   0.5243853), wk =   0.0266667
        k(    3) = (  -0.0066085   0.0038154   1.0487707), wk =   0.0266667
        k(    4) = (  -0.0032136   0.4949932  -0.1729963), wk =   0.0266667
        k(    5) = (  -0.0065178   0.4969009   0.3513891), wk =   0.0266667
        k(    6) = (  -0.0098220   0.4988086   0.8757744), wk =   0.0266667
        k(    7) = (   0.0033949   0.4911778  -1.2217669), wk =   0.0266667
        k(    8) = (   0.0000907   0.4930855  -0.6973816), wk =   0.0266667
        k(    9) = (  -0.0064271   0.9899864  -0.3459925), wk =   0.0266667
        k(   10) = (  -0.0097314   0.9918941   0.1783928), wk =   0.0266667
        k(   11) = (  -0.0130356   0.9938018   0.7027781), wk =   0.0266667
        k(   12) = (   0.0001813   0.9861710  -1.3947632), wk =   0.0266667
        k(   13) = (  -0.0031229   0.9880787  -0.8703779), wk =   0.0266667
        k(   14) = (   0.3640011  -0.2101561  -0.1486606), wk =   0.0266667
        k(   15) = (   0.3606968  -0.2082484   0.3757247), wk =   0.0266667
        k(   16) = (   0.3573926  -0.2063407   0.9001100), wk =   0.0266667
        k(   17) = (   0.3706095  -0.2139715  -1.1974313), wk =   0.0266667
        k(   18) = (   0.3673053  -0.2120638  -0.6730460), wk =   0.0266667
        k(   19) = (   0.3607875   0.2848371  -0.3216569), wk =   0.0266667
        k(   20) = (   0.3574833   0.2867448   0.2027284), wk =   0.0266667
        k(   21) = (   0.3541790   0.2886525   0.7271138), wk =   0.0266667
        k(   22) = (   0.3673960   0.2810217  -1.3704276), wk =   0.0266667
        k(   23) = (   0.3640917   0.2829294  -0.8460422), wk =   0.0266667
        k(   24) = (   0.3575739   0.7798303  -0.4946532), wk =   0.0266667
        k(   25) = (   0.3542697   0.7817380   0.0297322), wk =   0.0266667
        k(   26) = (   0.3509655   0.7836457   0.5541175), wk =   0.0266667
        k(   27) = (   0.3641824   0.7760149  -1.5434238), wk =   0.0266667
        k(   28) = (   0.3608782   0.7779226  -1.0190385), wk =   0.0266667
        k(   29) = (   0.3704282  -1.2001425   0.1973319), wk =   0.0266667
        k(   30) = (   0.3671240  -1.1982348   0.7217172), wk =   0.0266667
        k(   31) = (   0.3638198  -1.1963271   1.2461026), wk =   0.0266667
        k(   32) = (   0.3770367  -1.2039579  -0.8514388), wk =   0.0266667
        k(   33) = (   0.3737325  -1.2020502  -0.3270534), wk =   0.0266667
        k(   34) = (   0.3672146  -0.7051493   0.0243356), wk =   0.0266667
        k(   35) = (   0.3639104  -0.7032416   0.5487210), wk =   0.0266667
        k(   36) = (   0.3606062  -0.7013339   1.0731063), wk =   0.0266667
        k(   37) = (   0.3738231  -0.7089647  -1.0244350), wk =   0.0266667
        k(   38) = (   0.3705189  -0.7070570  -0.5000497), wk =   0.0266667

                       cryst. coord.
        k(    1) = (   0.0000000   0.0000000   0.0000000), wk =   0.0133333
        k(    2) = (   0.0000000  -0.0000000   0.2000000), wk =   0.0266667
        k(    3) = (   0.0000000  -0.0000000   0.4000000), wk =   0.0266667
        k(    4) = (  -0.0000000   0.2000000  -0.0000000), wk =   0.0266667
        k(    5) = (  -0.0000000   0.2000000   0.2000000), wk =   0.0266667
        k(    6) = (   0.0000000   0.2000000   0.4000000), wk =   0.0266667
        k(    7) = (  -0.0000000   0.2000000  -0.4000000), wk =   0.0266667
        k(    8) = (  -0.0000000   0.2000000  -0.2000000), wk =   0.0266667
        k(    9) = (  -0.0000000   0.4000000  -0.0000000), wk =   0.0266667
        k(   10) = (  -0.0000000   0.4000000   0.2000000), wk =   0.0266667
        k(   11) = (  -0.0000000   0.4000000   0.4000000), wk =   0.0266667
        k(   12) = (  -0.0000000   0.4000000  -0.4000000), wk =   0.0266667
        k(   13) = (  -0.0000000   0.4000000  -0.2000000), wk =   0.0266667
        k(   14) = (   0.3333333   0.0000000  -0.0000000), wk =   0.0266667
        k(   15) = (   0.3333333  -0.0000000   0.2000000), wk =   0.0266667
        k(   16) = (   0.3333333  -0.0000000   0.4000000), wk =   0.0266667
        k(   17) = (   0.3333333   0.0000000  -0.4000000), wk =   0.0266667
        k(   18) = (   0.3333333   0.0000000  -0.2000000), wk =   0.0266667
        k(   19) = (   0.3333333   0.2000000   0.0000000), wk =   0.0266667
        k(   20) = (   0.3333333   0.2000000   0.2000000), wk =   0.0266667
        k(   21) = (   0.3333333   0.2000000   0.4000000), wk =   0.0266667
        k(   22) = (   0.3333333   0.2000000  -0.4000000), wk =   0.0266667
        k(   23) = (   0.3333333   0.2000000  -0.2000000), wk =   0.0266667
        k(   24) = (   0.3333333   0.4000000  -0.0000000), wk =   0.0266667
        k(   25) = (   0.3333333   0.4000000   0.2000000), wk =   0.0266667
        k(   26) = (   0.3333333   0.4000000   0.4000000), wk =   0.0266667
        k(   27) = (   0.3333333   0.4000000  -0.4000000), wk =   0.0266667
        k(   28) = (   0.3333333   0.4000000  -0.2000000), wk =   0.0266667
        k(   29) = (   0.3333333  -0.4000000   0.0000000), wk =   0.0266667
        k(   30) = (   0.3333333  -0.4000000   0.2000000), wk =   0.0266667
        k(   31) = (   0.3333333  -0.4000000   0.4000000), wk =   0.0266667
        k(   32) = (   0.3333333  -0.4000000  -0.4000000), wk =   0.0266667
        k(   33) = (   0.3333333  -0.4000000  -0.2000000), wk =   0.0266667
        k(   34) = (   0.3333333  -0.2000000  -0.0000000), wk =   0.0266667
        k(   35) = (   0.3333333  -0.2000000   0.2000000), wk =   0.0266667
        k(   36) = (   0.3333333  -0.2000000   0.4000000), wk =   0.0266667
        k(   37) = (   0.3333333  -0.2000000  -0.4000000), wk =   0.0266667
        k(   38) = (   0.3333333  -0.2000000  -0.2000000), wk =   0.0266667

     Check: negative core charge=   -0.000251
     Generating pointlists ...

     Initial potential from superposition of free atoms

     starting charge      41.9989, renormalised to      42.0000
     Starting wfcs are   28 randomized atomic wfcs
     Checking if some PAW data can be deallocated...

     Self-consistent Calculation

[...]

     c_bands:  1 eigenvalues not converged
     c_bands:  1 eigenvalues not converged
     c_bands:  1 eigenvalues not converged
     c_bands:  2 eigenvalues not converged
     c_bands:  2 eigenvalues not converged
     c_bands:  2 eigenvalues not converged
     c_bands:  1 eigenvalues not converged
     c_bands:  4 eigenvalues not converged
     c_bands:  2 eigenvalues not converged
     c_bands:  2 eigenvalues not converged
     c_bands:  1 eigenvalues not converged
     c_bands:  2 eigenvalues not converged
     c_bands:  2 eigenvalues not converged
     c_bands:  1 eigenvalues not converged
     c_bands:  2 eigenvalues not converged
     c_bands:  1 eigenvalues not converged
     c_bands:  1 eigenvalues not converged
     c_bands:  2 eigenvalues not converged
     c_bands:  2 eigenvalues not converged
     c_bands:  1 eigenvalues not converged
     c_bands:  2 eigenvalues not converged
     c_bands:  2 eigenvalues not converged
     c_bands:  1 eigenvalues not converged
     c_bands:  1 eigenvalues not converged
     c_bands:  1 eigenvalues not converged
     c_bands:  1 eigenvalues not converged
     c_bands:  1 eigenvalues not converged
     c_bands:  1 eigenvalues not converged
     c_bands:  1 eigenvalues not converged
     c_bands:  2 eigenvalues not converged
     c_bands:  2 eigenvalues not converged
     c_bands:  2 eigenvalues not converged
     c_bands:  1 eigenvalues not converged
     c_bands:  1 eigenvalues not converged
     c_bands:  2 eigenvalues not converged
     c_bands:  2 eigenvalues not converged
     c_bands:  1 eigenvalues not converged
     c_bands:  2 eigenvalues not converged
     c_bands:  2 eigenvalues not converged
     c_bands:  2 eigenvalues not converged
     c_bands:  3 eigenvalues not converged
     c_bands:  4 eigenvalues not converged
     c_bands:  2 eigenvalues not converged
     c_bands:  1 eigenvalues not converged
     c_bands:  2 eigenvalues not converged
     c_bands:  2 eigenvalues not converged
     c_bands:  1 eigenvalues not converged
     c_bands:  1 eigenvalues not converged
     c_bands:  1 eigenvalues not converged
     c_bands:  1 eigenvalues not converged
     ethr =  1.00E-06,  avg # of iterations = 18.9

[...]

     total energy              =    -705.51316654 Ry
     estimated scf accuracy    <          7.6E-12 Ry

[...]

     iteration # 18     ecut=    30.00 Ry     beta= 0.70
     Davidson diagonalization with overlap

     ethr =  1.00E-13,  avg # of iterations =  2.4

     Magnetic moment per site  (integrated on atomic sphere of radius R)
     atom   1 (R=0.114)  charge= 12.6000  magn=  3.1512
     atom   2 (R=0.114)  charge= 12.5999  magn= -3.1512
     atom   3 (R=0.114)  charge=  3.5474  magn= -0.0293
     atom   4 (R=0.114)  charge=  3.5474  magn=  0.0293

     End of self-consistent calculation

 ------ SPIN UP ------------

[...]

 ------ SPIN DOWN ----------

[...]

          k =-0.0031 0.9881-0.8704 (  1285 PWs)   bands (ev):

[...]

          k = 0.3705-0.7071-0.5000 (  1270 PWs)   bands (ev):

   -71.1556 -67.4738 -39.9424 -39.9403 -39.8249 -36.3053 -36.2685 -36.2654
    -3.9174  -3.5825   4.4356   4.7386   5.4830   5.5718   6.0846   6.3116
     7.8579   7.9883   9.6622   9.8883  10.2015  11.2030  11.3600  12.1911
    12.8552

     occupation numbers
     1.0000   1.0000   1.0000   1.0000   1.0000   1.0000   1.0000   1.0000
     1.0000   1.0000   1.0000   1.0000   1.0000   1.0000   1.0000   1.0000
     1.0000   1.0000   1.0000   1.0000   0.9967   0.0000   0.0000   0.0000
     0.0000

     the Fermi energy is    10.4623 ev

!    total energy              =    -705.51316654 Ry
     total all-electron energy =     -6231.229974 Ry
     estimated scf accuracy    <          7.2E-13 Ry
     smearing contrib. (-TS)   =      -0.00093227 Ry
     internal energy E=F+TS    =    -705.51223427 Ry

     The total energy is F=E-TS. E is the sum of the following terms:
     one-electron contribution =    -273.74505666 Ry
     hartree contribution      =     157.96776504 Ry
     xc contribution           =     -66.37876082 Ry
     ewald contribution        =    -275.82208864 Ry
     one-center paw contrib.   =    -247.53409319 Ry
      -> PAW hartree energy AE =     179.47123154 Ry
      -> PAW hartree energy PS =    -180.42795634 Ry
      -> PAW xc energy AE      =    -104.65988632 Ry
      -> PAW xc energy PS      =      27.99204014 Ry
      -> total E_H with PAW    =     157.01104024 Ry
      -> total E_XC with PAW   =    -143.04660699 Ry

     total magnetization       =    -0.00 Bohr mag/cell
     absolute magnetization    =     7.56 Bohr mag/cell

     convergence has been achieved in  18 iterations

     Forces acting on atoms (cartesian axes, Ry/au):

     atom    1 type  1   force =     0.00033598   -0.00019398   -0.00014231
     atom    2 type  2   force =     0.00033542   -0.00019366   -0.00014208
     atom    3 type  3   force =    -0.00033590    0.00019393    0.00014229
     atom    4 type  3   force =    -0.00033550    0.00019370    0.00014210
     The non-local contrib.  to forces
     atom    1 type  1   force =    -0.00830862    0.00479698    0.00366730
     atom    2 type  2   force =    -0.00830961    0.00479755    0.00366771
     atom    3 type  3   force =    -0.00719289    0.00415282    0.00292909
     atom    4 type  3   force =    -0.00719210    0.00415236    0.00292873
     The ionic contribution  to forces
     atom    1 type  1   force =     0.60574029   -0.34972651   -0.24721831
     atom    2 type  2   force =     0.60577145   -0.34974340   -0.24723073
     atom    3 type  3   force =    -0.60575457    0.34973352    0.24722382
     atom    4 type  3   force =    -0.60575717    0.34973639    0.24722522
     The local contribution  to forces
     atom    1 type  1   force =    -0.60371720    0.34855722    0.24613434
     atom    2 type  2   force =    -0.60372771    0.34860574    0.24614604
     atom    3 type  3   force =     0.61196166   -0.35331784   -0.24974912
     atom    4 type  3   force =     0.61196387   -0.35331907   -0.24975010
     The core correction contribution to forces
     atom    1 type  1   force =     0.00672643   -0.00388352   -0.00277141
     atom    2 type  2   force =     0.00672694   -0.00388336   -0.00277154
     atom    3 type  3   force =     0.00075636   -0.00043669   -0.00030780
     atom    4 type  3   force =     0.00075634   -0.00043667   -0.00030779
     The Hubbard contrib.    to forces
     atom    1 type  1   force =     0.00000000    0.00000000    0.00000000
     atom    2 type  2   force =     0.00000000    0.00000000    0.00000000
     atom    3 type  3   force =     0.00000000    0.00000000    0.00000000
     atom    4 type  3   force =     0.00000000    0.00000000    0.00000000
     The SCF correction term to forces
     atom    1 type  1   force =     0.00000099   -0.00000057   -0.00000041
     atom    2 type  2   force =    -0.00000068    0.00000039    0.00000026
     atom    3 type  3   force =    -0.00000029    0.00000017    0.00000012
     atom    4 type  3   force =     0.00000034   -0.00000020   -0.00000014

     Total force =     0.000826     Total SCF correction =     0.000002

     Computing stress (Cartesian axis) and pressure

          total   stress  (Ry/bohr**3)                   (kbar)     P=     -342.97
  -0.00237307   0.00005199   0.00003942         -349.09        7.65        5.80
   0.00005199  -0.00231304  -0.00002276            7.65     -340.26       -3.35
   0.00003942  -0.00002276  -0.00230831            5.80       -3.35     -339.56

     kinetic stress (kbar)  19607.66    -30.20    -21.27
                              -30.20  19572.79     12.28
                              -21.27     12.28  19562.22

     local   stress (kbar)  -1169.53   1599.45   1125.67
                             1599.45    677.35   -649.91
                             1125.67   -649.91   1147.53

     nonloc. stress (kbar)  -1231.97     16.28     11.45
                               16.28  -1213.17     -6.61
                               11.45     -6.61  -1208.26

     hartree stress (kbar)  17350.06   -552.46   -388.94
                             -552.46  16712.13    224.56
                             -388.94    224.56  16550.27

     exc-cor stress (kbar)  -2980.99     -2.58     -1.83
                               -2.58  -2983.97      1.05
                               -1.83      1.05  -2984.75

     corecor stress (kbar)  -3354.35     -0.23     -0.07
                               -0.23  -3354.61      0.04
                               -0.07      0.04  -3354.67

     ewald   stress (kbar) -28569.98  -1022.61   -719.21
                            -1022.61 -29750.78    415.24
                             -719.21    415.24 -30051.91

     hubbard stress (kbar)      0.00      0.00      0.00
                                0.00      0.00      0.00
                                0.00      0.00      0.00

     DFT-D   stress (kbar)      0.00      0.00      0.00
                                0.00      0.00      0.00
                                0.00      0.00      0.00

     XDM     stress (kbar)      0.00      0.00      0.00
                                0.00      0.00      0.00
                                0.00      0.00      0.00

     dft-nl  stress (kbar)      0.00      0.00      0.00
                                0.00      0.00      0.00
                                0.00      0.00      0.00

     TS-vdW  stress (kbar)      0.00      0.00      0.00
                                0.00      0.00      0.00
                                0.00      0.00      0.00

     MDB     stress (kbar)      0.00      0.00      0.00
                                0.00      0.00      0.00
                                0.00      0.00      0.00

     3D-RISM stress (kbar)      0.00      0.00      0.00
                                0.00      0.00      0.00
                                0.00      0.00      0.00

     Writing all to output data dir ./temp/mns.save/ :
     XML data file, charge density, pseudopotentials, collected wavefunctions

     General routines

     Parallel routines

     PAW routines

   This run was terminated on:  10:27:51  19Jan2025

   JOB DONE.