     Program PWSCF v.7.3.1 starts on 19Jan2025 at 13:29:14

     Reading input from relax.in

     Current dimensions of program PWSCF are:
     Max number of different atomic species (ntypx) = 10
     Max number of k-points (npk) =  40000
     Max angular momentum in pseudopotentials (lmaxx) =  4
     file Mn.pbe-spn-kjpaw_psl.0.3.1.UPF: wavefunction(s)  3P 3D renormalized
     file Mn.pbe-spn-kjpaw_psl.0.3.1.UPF: wavefunction(s)  3P 3D renormalized
     file Mn.pbe-spn-kjpaw_psl.0.3.1.UPF: wavefunction(s)  3P 3D renormalized
     file Mn.pbe-spn-kjpaw_psl.0.3.1.UPF: wavefunction(s)  3P 3D renormalized
     file S.pbe-n-kjpaw_psl.1.0.0.UPF: wavefunction(s)  3S 3P renormalized

     R & G space division:  proc/nbgrp/npool/nimage =       6
     Subspace diagonalization in iterative solution of the eigenvalue problem:
     a serial algorithm will be used

     Using Slab Decomposition

     bravais-lattice index     =            0
     lattice parameter (alat)  =      14.7866  a.u.
     unit-cell volume          =    1143.0296 (a.u.)^3
     number of atoms/cell      =            8
     number of atomic types    =            5
     number of electrons       =        84.00
     number of Kohn-Sham states=           50
     kinetic-energy cutoff     =      30.0000  Ry
     charge density cutoff     =     150.0000  Ry
     scf convergence threshold =      1.0E-10
     mixing beta               =       0.7000
     number of iterations used =            8  plain     mixing
     energy convergence thresh.=      1.0E-05
     force convergence thresh. =      1.0E-04
     Exchange-correlation= SLA  PW   PBX  PBC
                           (   1   4   3   4   0   0   0)
     nstep                     =           50

     celldm(1)=  14.786571  celldm(2)=   0.000000  celldm(3)=   0.000000
     celldm(4)=   0.000000  celldm(5)=   0.000000  celldm(6)=   0.000000

     crystal axes: (cart. coord. in units of alat)
               a(1) = (   1.000000   0.000000   0.000000 )
               a(2) = (   0.500000   0.866025   0.000000 )
               a(3) = (   0.250000   0.144338   0.408248 )

     reciprocal axes: (cart. coord. in units 2 pi/alat)
               b(1) = (  1.000000 -0.577350 -0.408248 )
               b(2) = (  0.000000  1.154700 -0.408248 )
               b(3) = (  0.000000  0.000000  2.449490 )

     PseudoPot. # 1 for Mn read from file:
     ./../../../pseudos/Mn.pbe-spn-kjpaw_psl.0.3.1.UPF
     MD5 check sum: ba19e6d7ccbc12830efad05ba8577d9c
     Pseudo is Projector augmented-wave + core cor, Zval = 15.0
     Generated using &quot;atomic&quot; code by A. Dal Corso  v.6.2.2
     Shape of augmentation charge: PSQ
     Using radial grid of 1187 points,  6 beta functions with:
                l(1) =   0
                l(2) =   0
                l(3) =   1
                l(4) =   1
                l(5) =   2
                l(6) =   2
     Q(r) pseudized with 0 coefficients

[...]

     PseudoPot. # 4 for Mn read from file:
     ./../../../pseudos/Mn.pbe-spn-kjpaw_psl.0.3.1.UPF
     MD5 check sum: ba19e6d7ccbc12830efad05ba8577d9c
     Pseudo is Projector augmented-wave + core cor, Zval = 15.0
     Generated using &quot;atomic&quot; code by A. Dal Corso  v.6.2.2
     Shape of augmentation charge: PSQ
     Using radial grid of 1187 points,  6 beta functions with:
                l(1) =   0
                l(2) =   0
                l(3) =   1
                l(4) =   1
                l(5) =   2
                l(6) =   2
     Q(r) pseudized with 0 coefficients

     PseudoPot. # 5 for S  read from file:
     ./../../../pseudos/S.pbe-n-kjpaw_psl.1.0.0.UPF
     MD5 check sum: fb45dfebcf3e72a4e1bd4a866ec2e262
     Pseudo is Projector augmented-wave + core cor, Zval =  6.0
     Generated using &quot;atomic&quot; code by A. Dal Corso  v.6.3
     Shape of augmentation charge: PSQ
     Using radial grid of 1151 points,  6 beta functions with:
                l(1) =   0
                l(2) =   0
                l(3) =   1
                l(4) =   1
                l(5) =   2
                l(6) =   2
     Q(r) pseudized with 0 coefficients

     atomic species   valence    mass     pseudopotential
     Mn1              15.00    54.93800     Mn( 1.00)
     Mn2              15.00    54.93800     Mn( 1.00)
     Mn3              15.00    54.93800     Mn( 1.00)
     Mn4              15.00    54.93800     Mn( 1.00)
     S                 6.00    32.06500     S ( 1.00)

     Starting magnetic structure
     atomic species   magnetization
     Mn1             0.200
     Mn2             0.200
     Mn3             0.200
     Mn4             0.200
     S               0.000

     No symmetry found

                                    s                        frac. trans.

      isym =  1     identity

 cryst.   s( 1) = (     1          0          0      )
                  (     0          1          0      )
                  (     0          0          1      )

 cart.    s( 1) = (  1.0000000  0.0000000  0.0000000 )
                  (  0.0000000  1.0000000  0.0000000 )
                  (  0.0000000  0.0000000  1.0000000 )

   Cartesian axes

     site n.     atom                  positions (alat units)
         1        Mn1    tau(   1) = (   0.7500000   0.4330127   0.3061862  )
         2        Mn2    tau(   2) = (   0.9999999   0.8660254   0.3061862  )
         3        Mn3    tau(   3) = (   1.2500000   0.4330127   0.3061862  )
         4        Mn4    tau(   4) = (   1.4999999   0.8660254   0.3061862  )
         5        S      tau(   5) = (   0.0000000   0.0000000   0.0000000  )
         6        S      tau(   6) = (   0.2500000   0.4330127   0.0000000  )
         7        S      tau(   7) = (   0.5000000   0.0000000   0.0000000  )
         8        S      tau(   8) = (   0.7500000   0.4330127   0.0000000  )

   Crystallographic axes

     site n.     atom                  positions (cryst. coord.)
         1        Mn1    tau(   1) = (  0.3750000  0.3750000  0.7500000  )
         2        Mn2    tau(   2) = (  0.3750000  0.8750000  0.7500000  )
         3        Mn3    tau(   3) = (  0.8750000  0.3750000  0.7500000  )
         4        Mn4    tau(   4) = (  0.8750000  0.8750000  0.7500000  )
         5        S      tau(   5) = (  0.0000000  0.0000000  0.0000000  )
         6        S      tau(   6) = (  0.0000000  0.5000000  0.0000000  )
         7        S      tau(   7) = (  0.5000000  0.0000000  0.0000000  )
         8        S      tau(   8) = (  0.5000000  0.5000000  0.0000000  )

     number of k points=    23  Gaussian smearing, width (Ry)=  0.0100
                       cart. coord. in units 2pi/alat
        k(    1) = (   0.0000000   0.0000000   0.0000000), wk =   0.0222222
        k(    2) = (   0.0000000   0.0000000   0.4898979), wk =   0.0444444
        k(    3) = (   0.0000000   0.0000000   0.9797958), wk =   0.0444444
        k(    4) = (   0.0000000   0.3849002  -0.1360827), wk =   0.0444444
        k(    5) = (   0.0000000   0.3849002   0.3538152), wk =   0.0444444
        k(    6) = (   0.0000000   0.3849002   0.8437131), wk =   0.0444444
        k(    7) = (   0.0000000   0.3849002  -1.1158786), wk =   0.0444444
        k(    8) = (   0.0000000   0.3849002  -0.6259807), wk =   0.0444444
        k(    9) = (   0.3333333   0.1924501  -0.2721655), wk =   0.0444444
        k(   10) = (   0.3333333   0.1924501   0.2177324), wk =   0.0444444
        k(   11) = (   0.3333333   0.1924501   0.7076304), wk =   0.0444444
        k(   12) = (   0.3333333   0.1924501  -1.2519613), wk =   0.0444444
        k(   13) = (   0.3333333   0.1924501  -0.7620634), wk =   0.0444444
        k(   14) = (   0.3333333  -0.5773502   0.0000000), wk =   0.0444444
        k(   15) = (   0.3333333  -0.5773502   0.4898979), wk =   0.0444444
        k(   16) = (   0.3333333  -0.5773502   0.9797959), wk =   0.0444444
        k(   17) = (  -0.3333333   0.1924501   0.1360827), wk =   0.0444444
        k(   18) = (  -0.3333333   0.1924501  -0.3538152), wk =   0.0444444
        k(   19) = (  -0.3333333   0.1924501  -0.8437131), wk =   0.0444444
        k(   20) = (  -0.3333333   0.1924501   1.1158786), wk =   0.0444444
        k(   21) = (  -0.3333333   0.1924501   0.6259807), wk =   0.0444444
        k(   22) = (   0.3333333  -0.5773502  -0.4898979), wk =   0.0444444
        k(   23) = (   0.3333333  -0.5773502  -0.9797958), wk =   0.0444444

                       cryst. coord.
        k(    1) = (   0.0000000   0.0000000   0.0000000), wk =   0.0222222
        k(    2) = (   0.0000000   0.0000000   0.2000000), wk =   0.0444444
        k(    3) = (   0.0000000   0.0000000   0.4000000), wk =   0.0444444
        k(    4) = (   0.0000000   0.3333333   0.0000000), wk =   0.0444444
        k(    5) = (   0.0000000   0.3333333   0.2000000), wk =   0.0444444
        k(    6) = (   0.0000000   0.3333333   0.4000000), wk =   0.0444444
        k(    7) = (   0.0000000   0.3333333  -0.4000000), wk =   0.0444444
        k(    8) = (   0.0000000   0.3333333  -0.2000000), wk =   0.0444444
        k(    9) = (   0.3333333   0.3333333   0.0000000), wk =   0.0444444
        k(   10) = (   0.3333333   0.3333333   0.2000000), wk =   0.0444444
        k(   11) = (   0.3333333   0.3333333   0.4000000), wk =   0.0444444
        k(   12) = (   0.3333333   0.3333333  -0.4000000), wk =   0.0444444
        k(   13) = (   0.3333333   0.3333333  -0.2000000), wk =   0.0444444
        k(   14) = (   0.3333333  -0.3333333   0.0000000), wk =   0.0444444
        k(   15) = (   0.3333333  -0.3333333   0.2000000), wk =   0.0444444
        k(   16) = (   0.3333333  -0.3333333   0.4000000), wk =   0.0444444
        k(   17) = (  -0.3333333   0.0000000  -0.0000000), wk =   0.0444444
        k(   18) = (  -0.3333333   0.0000000  -0.2000000), wk =   0.0444444
        k(   19) = (  -0.3333333   0.0000000  -0.4000000), wk =   0.0444444
        k(   20) = (  -0.3333333   0.0000000   0.4000000), wk =   0.0444444
        k(   21) = (  -0.3333333   0.0000000   0.2000000), wk =   0.0444444
        k(   22) = (   0.3333333  -0.3333333  -0.2000000), wk =   0.0444444
        k(   23) = (   0.3333333  -0.3333333  -0.4000000), wk =   0.0444444

     Check: negative core charge=   -0.000237
     Generating pointlists ...
     new r_m :   0.1263 (alat units)  1.8676 (a.u.) for type    1
     new r_m :   0.1263 (alat units)  1.8676 (a.u.) for type    2
     new r_m :   0.1263 (alat units)  1.8676 (a.u.) for type    3
     new r_m :   0.1263 (alat units)  1.8676 (a.u.) for type    4
     new r_m :   0.1263 (alat units)  1.8676 (a.u.) for type    5

     Initial potential from superposition of free atoms

     starting charge      83.9979, renormalised to      84.0000
     Starting wfcs are   56 randomized atomic wfcs
     Checking if some PAW data can be deallocated...

     Self-consistent Calculation

     iteration #  1     ecut=    30.00 Ry     beta= 0.70
     Davidson diagonalization with overlap

     ethr =  1.00E-02,  avg # of iterations =  2.2

     Threshold (ethr) on eigenvalues was too large:
     Diagonalizing with lowered threshold

     Davidson diagonalization with overlap

[...]

     total energy              =   -1410.90826822 Ry
[...]

     Forces acting on atoms (cartesian axes, Ry/au):

     atom    1 type  1   force =    -0.00347592   -0.00175801    0.00520018
     atom    2 type  2   force =    -0.00348515   -0.00176373    0.00520826
     atom    3 type  3   force =    -0.00348376   -0.00176413    0.00520765
     atom    4 type  4   force =    -0.00347438   -0.00175901    0.00519979
     atom    5 type  5   force =     0.00348113    0.00176187   -0.00520458
     atom    6 type  5   force =     0.00347865    0.00176048   -0.00520341
     atom    7 type  5   force =     0.00347850    0.00176053   -0.00520333
     atom    8 type  5   force =     0.00348094    0.00176199   -0.00520456
     The non-local contrib.  to forces
     atom    1 type  1   force =    -0.00383409    0.00060078    0.00852555
     atom    2 type  2   force =    -0.00384115    0.00059553    0.00852979
     atom    3 type  3   force =    -0.00384096    0.00059658    0.00852910
     atom    4 type  4   force =    -0.00383363    0.00059957    0.00852574
     atom    5 type  5   force =     0.00110543   -0.00058683   -0.00111095
     atom    6 type  5   force =     0.00104700   -0.00062060   -0.00106608
     atom    7 type  5   force =     0.00104688   -0.00062050   -0.00106618
     atom    8 type  5   force =     0.00110539   -0.00058663   -0.00111094
     The ionic contribution  to forces
     atom    1 type  1   force =    -0.00000135   -0.00000078   -0.00000055
     atom    2 type  2   force =    -0.00000135   -0.00000078   -0.00000055
     atom    3 type  3   force =    -0.00000135   -0.00000078   -0.00000055
     atom    4 type  4   force =    -0.00000135   -0.00000078   -0.00000055
     atom    5 type  5   force =     0.00000135    0.00000078    0.00000055
     atom    6 type  5   force =     0.00000135    0.00000078    0.00000055
     atom    7 type  5   force =     0.00000135    0.00000078    0.00000055
     atom    8 type  5   force =     0.00000135    0.00000078    0.00000055
     The local contribution  to forces
     atom    1 type  1   force =    -0.00001842   -0.00234329   -0.00241799
     atom    2 type  2   force =    -0.00002208   -0.00234397   -0.00241304
     atom    3 type  3   force =    -0.00002423   -0.00234417   -0.00241160
     atom    4 type  4   force =    -0.00002071   -0.00234063   -0.00241764
     atom    5 type  5   force =     0.00239091    0.00232382   -0.00410155
     atom    6 type  5   force =     0.00244476    0.00235810   -0.00414476
     atom    7 type  5   force =     0.00244563    0.00235443   -0.00414385
     atom    8 type  5   force =     0.00239164    0.00232632   -0.00410298
     The core correction contribution to forces
     atom    1 type  1   force =     0.00038284   -0.00001289   -0.00090651
     atom    2 type  2   force =     0.00037934   -0.00001482   -0.00090361
     atom    3 type  3   force =     0.00037940   -0.00001494   -0.00090358
     atom    4 type  4   force =     0.00038286   -0.00001284   -0.00090653
     atom    5 type  5   force =    -0.00001608    0.00002470    0.00001081
     atom    6 type  5   force =    -0.00001444    0.00002565    0.00000956
     atom    7 type  5   force =    -0.00001444    0.00002563    0.00000956
     atom    8 type  5   force =    -0.00001607    0.00002470    0.00001081
     The Hubbard contrib.    to forces
     atom    1 type  1   force =     0.00000000    0.00000000    0.00000000
     atom    2 type  2   force =     0.00000000    0.00000000    0.00000000
     atom    3 type  3   force =     0.00000000    0.00000000    0.00000000
     atom    4 type  4   force =     0.00000000    0.00000000    0.00000000
     atom    5 type  5   force =     0.00000000    0.00000000    0.00000000
     atom    6 type  5   force =     0.00000000    0.00000000    0.00000000
     atom    7 type  5   force =     0.00000000    0.00000000    0.00000000
     atom    8 type  5   force =     0.00000000    0.00000000    0.00000000
     The SCF correction term to forces
     atom    1 type  1   force =    -0.00000420   -0.00000008    0.00000256
     atom    2 type  2   force =     0.00000080    0.00000206   -0.00000146
     atom    3 type  3   force =     0.00000408    0.00000093   -0.00000282
     atom    4 type  4   force =    -0.00000085   -0.00000258    0.00000166
     atom    5 type  5   force =     0.00000021    0.00000115   -0.00000056
     atom    6 type  5   force =     0.00000069   -0.00000170    0.00000021
     atom    7 type  5   force =    -0.00000023    0.00000194   -0.00000052
     atom    8 type  5   force =    -0.00000067   -0.00000143    0.00000089

     Total force =     0.018394     Total SCF correction =     0.000009

     BFGS Geometry Optimization
     Energy error            =      0.0E+00 Ry
     Gradient error          =      5.2E-03 Ry/Bohr

     number of scf cycles    =   1
     number of bfgs steps    =   0

     energy             new  =   -1410.9710352232 Ry

     new trust radius        =       0.0065102165 bohr
     new conv_thr            =            1.0E-10 Ry

ATOMIC_POSITIONS (crystal)
Mn1              0.3746899958        0.3747191413        0.7508614423
Mn2              0.3746893725        0.8747184714        0.7508627807
Mn3              0.8746894981        0.3747184571        0.7508626810
Mn4              0.8746901499        0.8747190741        0.7508613781
S                0.0003103270        0.0002812815       -0.0008621715
S                0.0003101816        0.5002811412       -0.0008619782
S                0.5003101666        0.0002811430       -0.0008619648
S                0.5003103086        0.5002812904       -0.0008621677

     Writing config-only to output data dir ./temp/mns.save/ :
     XML data file
     NEW-OLD atomic charge density approx. for the potential

     Check: negative core charge=   -0.000236
     Generating pointlists ...

[...]

     Total force =     0.014584     Total SCF correction =     0.000009
     Energy error            =      3.0E-04 Ry
     Gradient error          =      4.1E-03 Ry/Bohr

[...]

     energy             old  =   -1410.9710352232 Ry
     energy             new  =   -1410.9713384985 Ry

     CASE: energy            _new < energy            _old

[...]

     number of scf cycles    =   5
     number of bfgs steps    =   4

     energy             old  =   -1410.9718125266 Ry
     energy             new  =   -1410.9718557558 Ry

     CASE: energy            _new < energy            _old

     small trust_radius: resetting bfgs history

     new trust radius        =       0.0000294725 bohr
     new conv_thr            =            1.0E-12 Ry

ATOMIC_POSITIONS (crystal)
Mn1              0.3734958391        0.3736312283        0.7541624863
Mn2              0.3734882295        0.8736228960        0.7541783981
Mn3              0.8734863221        0.3736239746        0.7541792322
Mn4              0.8734941864        0.8736312086        0.7541643547
S                0.0015087359        0.0013725814       -0.0041707872
S                0.0015088536        0.5013728407       -0.0041714322
S                0.5015090138        0.0013726557       -0.0041713738
S                0.5015088196        0.5013726148       -0.0041708781

     Writing config-only to output data dir ./temp/mns.save/ :
     XML data file
     NEW-OLD atomic charge density approx. for the potential

     Check: negative core charge=   -0.000237
     Generating pointlists ...

     Self-consistent Calculation

[...]

     Threshold (ethr) on eigenvalues was too large:
     Diagonalizing with lowered threshold

     Davidson diagonalization with overlap

[...]

     c_bands:  1 eigenvalues not converged
     c_bands:  1 eigenvalues not converged
     c_bands:  2 eigenvalues not converged
     ethr =  1.32E-12,  avg # of iterations =  9.0

[...]

     total energy              =   -1410.97185576 Ry
     estimated scf accuracy    <          6.5E-12 Ry

[...]

     iteration # 14     ecut=    30.00 Ry     beta= 0.70
     Davidson diagonalization with overlap

     ethr =  1.00E-13,  avg # of iterations =  1.0

     Magnetic moment per site  (integrated on atomic sphere of radius R)
     atom   1 (R=0.126)  charge= 12.9141  magn=  3.5421
     atom   2 (R=0.126)  charge= 12.9141  magn=  3.5421
     atom   3 (R=0.126)  charge= 12.9141  magn=  3.5421
     atom   4 (R=0.126)  charge= 12.9141  magn=  3.5421
     atom   5 (R=0.126)  charge=  4.1046  magn=  0.0026
     atom   6 (R=0.126)  charge=  4.1045  magn=  0.0026
     atom   7 (R=0.126)  charge=  4.1045  magn=  0.0026
     atom   8 (R=0.126)  charge=  4.1046  magn=  0.0026

     End of self-consistent calculation

 ------ SPIN UP ------------

[...]

 ------ SPIN DOWN ----------

[...]

          k =-0.3333 0.1925 0.6260 (  3178 PWs)   bands (ev):

[...]

          k = 0.3333-0.5774-0.9798 (  3173 PWs)   bands (ev):

   -70.2721 -70.2720 -70.2719 -70.2719 -39.1059 -39.1053 -39.1047 -39.1040
   -39.0512 -39.0507 -39.0501 -39.0494 -39.0034 -39.0032 -39.0021 -39.0021
    -5.6694  -5.4559  -5.4322  -5.4087   2.8427   2.8701   2.8780   2.9766
     3.2480   3.4570   3.5382   3.9484   4.0976   4.1375   4.1376   4.2059
     7.6464   7.7762   7.8134   7.9415   8.2432   8.2508   8.3214   8.6877
     8.7514   8.8042   8.8713   8.9127   9.1521   9.1860   9.1878   9.4216
     9.5953   9.6625

     occupation numbers
     1.0000   1.0000   1.0000   1.0000   1.0000   1.0000   1.0000   1.0000
     1.0000   1.0000   1.0000   1.0000   1.0000   1.0000   1.0000   1.0000
     1.0000   1.0000   1.0000   1.0000   1.0000   1.0000   1.0000   1.0000
     1.0000   1.0000   1.0000   1.0000   1.0000   1.0000   1.0000   1.0000
     0.9992   0.9637   0.9205   0.5306   0.0011   0.0009   0.0001   0.0000
     0.0000   0.0000   0.0000   0.0000   0.0000   0.0000   0.0000   0.0000
     0.0000   0.0000

     the Fermi energy is     7.9489 ev

!    total energy              =   -1410.97185576 Ry
     total all-electron energy =    -12462.405470 Ry
     estimated scf accuracy    <          5.9E-13 Ry
     smearing contrib. (-TS)   =      -0.00291699 Ry
     internal energy E=F+TS    =   -1410.96893877 Ry

     The total energy is F=E-TS. E is the sum of the following terms:
     one-electron contribution =    -609.04085160 Ry
     hartree contribution      =     338.02876942 Ry
     xc contribution           =    -131.96919483 Ry
     ewald contribution        =    -513.00047353 Ry
     one-center paw contrib.   =    -494.98718823 Ry
      -> PAW hartree energy AE =     350.74563892 Ry
      -> PAW hartree energy PS =    -352.65757094 Ry
      -> PAW xc energy AE      =    -208.89117385 Ry
      -> PAW xc energy PS      =      55.57100056 Ry
      -> total E_H with PAW    =     336.11683740 Ry
      -> total E_XC with PAW   =    -285.28936812 Ry

     total magnetization       =    15.96 Bohr mag/cell
     absolute magnetization    =    16.05 Bohr mag/cell

     convergence has been achieved in  14 iterations

     Forces acting on atoms (cartesian axes, Ry/au):

     atom    1 type  1   force =     0.00002163    0.00000082    0.00000640
     atom    2 type  2   force =    -0.00000099   -0.00001140    0.00002343
     atom    3 type  3   force =     0.00000142   -0.00001352    0.00002263
     atom    4 type  4   force =     0.00002401    0.00000021    0.00000491
     atom    5 type  5   force =    -0.00001123    0.00000575   -0.00001432
     atom    6 type  5   force =    -0.00001086    0.00000564   -0.00001478
     atom    7 type  5   force =    -0.00001180    0.00000659   -0.00001448
     atom    8 type  5   force =    -0.00001219    0.00000591   -0.00001378
     The non-local contrib.  to forces
     atom    1 type  1   force =    -0.00007140    0.00267017    0.00316528
     atom    2 type  2   force =    -0.00010637    0.00265044    0.00319102
     atom    3 type  3   force =    -0.00010717    0.00265096    0.00319118
     atom    4 type  4   force =    -0.00007240    0.00267056    0.00316554
     atom    5 type  5   force =    -0.00255358   -0.00243635    0.00333812
     atom    6 type  5   force =    -0.00270881   -0.00252595    0.00346713
     atom    7 type  5   force =    -0.00270857   -0.00252618    0.00346692
     atom    8 type  5   force =    -0.00255346   -0.00243644    0.00333786
     The ionic contribution  to forces
     atom    1 type  1   force =     0.09105899    0.04592919   -0.12718635
     atom    2 type  2   force =     0.09290517    0.04713565   -0.12873775
     atom    3 type  3   force =     0.09327969    0.04677997   -0.12884183
     atom    4 type  4   force =     0.09143478    0.04585342   -0.12739463
     atom    5 type  5   force =    -0.09206554   -0.04642763    0.12798597
     atom    6 type  5   force =    -0.09211263   -0.04651693    0.12803356
     atom    7 type  5   force =    -0.09227514   -0.04635823    0.12807624
     atom    8 type  5   force =    -0.09222531   -0.04639545    0.12806478
     The local contribution  to forces
     atom    1 type  1   force =    -0.09129580   -0.04853922    0.12494382
     atom    2 type  2   force =    -0.09313256   -0.04973997    0.12648886
     atom    3 type  3   force =    -0.09350510   -0.04938610    0.12659251
     atom    4 type  4   force =    -0.09166945   -0.04846389    0.12515104
     atom    5 type  5   force =     0.09435166    0.04870808   -0.13100253
     atom    6 type  5   force =     0.09455021    0.04888426   -0.13117610
     atom    7 type  5   force =     0.09471109    0.04872720   -0.13121816
     atom    8 type  5   force =     0.09450992    0.04867619   -0.13108030
     The core correction contribution to forces
     atom    1 type  1   force =     0.00024800   -0.00010025   -0.00081380
     atom    2 type  2   force =     0.00025092   -0.00009818   -0.00081626
     atom    3 type  3   force =     0.00025212   -0.00009925   -0.00081663
     atom    4 type  4   force =     0.00024924   -0.00010051   -0.00081460
     atom    5 type  5   force =     0.00017446    0.00012072   -0.00023335
     atom    6 type  5   force =     0.00017891    0.00012331   -0.00023702
     atom    7 type  5   force =     0.00017896    0.00012326   -0.00023703
     atom    8 type  5   force =     0.00017451    0.00012071   -0.00023337
     The Hubbard contrib.    to forces
     atom    1 type  1   force =     0.00000000    0.00000000    0.00000000
     atom    2 type  2   force =     0.00000000    0.00000000    0.00000000
     atom    3 type  3   force =     0.00000000    0.00000000    0.00000000
     atom    4 type  4   force =     0.00000000    0.00000000    0.00000000
     atom    5 type  5   force =     0.00000000    0.00000000    0.00000000
     atom    6 type  5   force =     0.00000000    0.00000000    0.00000000
     atom    7 type  5   force =     0.00000000    0.00000000    0.00000000
     atom    8 type  5   force =     0.00000000    0.00000000    0.00000000
     The SCF correction term to forces
     atom    1 type  1   force =     0.00000002    0.00000011   -0.00000003
     atom    2 type  2   force =     0.00000002   -0.00000016    0.00000008
     atom    3 type  3   force =     0.00000007    0.00000008   -0.00000007
     atom    4 type  4   force =     0.00000003   -0.00000019    0.00000009
     atom    5 type  5   force =    -0.00000005    0.00000011   -0.00000001
     atom    6 type  5   force =    -0.00000035    0.00000012    0.00000018
     atom    7 type  5   force =     0.00000005   -0.00000029    0.00000007
     atom    8 type  5   force =     0.00000034    0.00000007   -0.00000023

     Total force =     0.000063     Total SCF correction =     0.000001
     Energy error            =      5.1E-09 Ry
     Gradient error          =      2.4E-05 Ry/Bohr

     bfgs converged in   6 scf cycles and   5 bfgs steps
     (criteria: energy <  1.0E-05 Ry, force <  1.0E-04 Ry/Bohr)

     End of BFGS Geometry Optimization

     Final energy             =   -1410.9718557609 Ry

     File ./temp/mns.bfgs deleted, as requested
Begin final coordinates

ATOMIC_POSITIONS (crystal)
Mn1              0.3734958391        0.3736312283        0.7541624863
Mn2              0.3734882295        0.8736228960        0.7541783981
Mn3              0.8734863221        0.3736239746        0.7541792322
Mn4              0.8734941864        0.8736312086        0.7541643547
S                0.0015087359        0.0013725814       -0.0041707872
S                0.0015088536        0.5013728407       -0.0041714322
S                0.5015090138        0.0013726557       -0.0041713738
S                0.5015088196        0.5013726148       -0.0041708781
End final coordinates

     Writing all to output data dir ./temp/mns.save/ :
     XML data file, charge density, pseudopotentials, collected wavefunctions

     General routines

     Parallel routines

     PAW routines

   This run was terminated on:  13:49:55  19Jan2025

   JOB DONE.