     Program PWSCF v.7.3.1 starts on 26Dec2024 at  4:52:23

     Reading input from scf.in

     Current dimensions of program PWSCF are:
     Max number of different atomic species (ntypx) = 10
     Max number of k-points (npk) =  40000
     Max angular momentum in pseudopotentials (lmaxx) =  4
     file C.pbesol-n-kjpaw_psl.1.0.0.UPF: wavefunction(s)  2S 2P renormalized

     R & G space division:  proc/nbgrp/npool/nimage =       4
     Subspace diagonalization in iterative solution of the eigenvalue problem:
     a serial algorithm will be used

     Using Slab Decomposition

     bravais-lattice index     =            4
     lattice parameter (alat)  =       4.6460  a.u.
     unit-cell volume          =     234.0398 (a.u.)^3
     number of atoms/cell      =            4
     number of atomic types    =            1
     number of electrons       =        16.00
     number of Kohn-Sham states=           12
     kinetic-energy cutoff     =      50.0000  Ry
     charge density cutoff     =     400.0000  Ry
     scf convergence threshold =      1.0E-09
     mixing beta               =       0.7000
     number of iterations used =            8  plain     mixing
     Exchange-correlation= SLA  PW   PSX  PSC
                           (   1   4  10   8   0   0   0)

     celldm(1)=   4.646043  celldm(2)=   0.000000  celldm(3)=   2.694694
     celldm(4)=   0.000000  celldm(5)=   0.000000  celldm(6)=   0.000000

     crystal axes: (cart. coord. in units of alat)
               a(1) = (   1.000000   0.000000   0.000000 )
               a(2) = (  -0.500000   0.866025   0.000000 )
               a(3) = (   0.000000   0.000000   2.694694 )

     reciprocal axes: (cart. coord. in units 2 pi/alat)
               b(1) = (  1.000000  0.577350 -0.000000 )
               b(2) = (  0.000000  1.154701  0.000000 )
               b(3) = (  0.000000 -0.000000  0.371100 )

     PseudoPot. # 1 for C  read from file:
     ./../../pseudos/C.pbesol-n-kjpaw_psl.1.0.0.UPF
     MD5 check sum: f9b2fe17d1f478429498b05d17159f9e
     Pseudo is Projector augmented-wave + core cor, Zval =  4.0
     Generated using &quot;atomic&quot; code by A. Dal Corso  v.6.3
     Shape of augmentation charge: PSQ
     Using radial grid of 1073 points,  4 beta functions with:
                l(1) =   0
                l(2) =   0
                l(3) =   1
                l(4) =   1
     Q(r) pseudized with 0 coefficients

     atomic species   valence    mass     pseudopotential
     C                 4.00    12.01100     C ( 1.00)

     24 Sym. Ops., with inversion, found (12 have fractional translation)

   Cartesian axes

     site n.     atom                  positions (alat units)
         1        C      tau(   1) = (   0.0000000   0.0000000   0.6736734  )
         2        C      tau(   2) = (   0.0000000   0.0000000   2.0210203  )
         3        C      tau(   3) = (   0.0000000   0.5773503   0.6736734  )
         4        C      tau(   4) = (   0.5000000   0.2886751   2.0210203  )

     DFT-D3 Dispersion Correction (3-body terms):
       Reference C6 values for interpolation:

         atom   Coordination number   C6
         C          0.000            98.23
         C          0.987            86.49
         C          1.998            58.72
         C          2.999            51.56
         C          3.984            36.41

       Values used:

         atom   Coordination number  R0_AB[au]  C6      C8
         C          3.337            2.750     47.80   1382.46
         C          3.337            2.750     47.80   1382.46
         C          3.336            2.750     47.81   1382.78
         C          3.336            2.750     47.81   1382.78

         Molecular C6 ( Ry / a.u.^6 ) =       764.89

     number of k points=    57  Gaussian smearing, width (Ry)=  0.0200
                       cart. coord. in units 2pi/alat
        k(    1) = (   0.0000000   0.0000000   0.0000000), wk =   0.0034722
        k(    2) = (   0.0000000   0.0000000   0.0927749), wk =   0.0069444
        k(    3) = (   0.0000000   0.0000000  -0.1855498), wk =   0.0034722
        k(    4) = (   0.0000000   0.0962250   0.0000000), wk =   0.0208333
        k(    5) = (   0.0000000   0.0962250   0.0927749), wk =   0.0416667
        k(    6) = (   0.0000000   0.0962250  -0.1855498), wk =   0.0208333
        k(    7) = (   0.0000000   0.1924501   0.0000000), wk =   0.0208333
        k(    8) = (   0.0000000   0.1924501   0.0927749), wk =   0.0416667
        k(    9) = (   0.0000000   0.1924501  -0.1855498), wk =   0.0208333
        k(   10) = (   0.0000000   0.2886751   0.0000000), wk =   0.0208333
        k(   11) = (   0.0000000   0.2886751   0.0927749), wk =   0.0416667
        k(   12) = (   0.0000000   0.2886751  -0.1855498), wk =   0.0208333
        k(   13) = (   0.0000000   0.3849002   0.0000000), wk =   0.0208333
        k(   14) = (   0.0000000   0.3849002   0.0927749), wk =   0.0416667
        k(   15) = (   0.0000000   0.3849002  -0.1855498), wk =   0.0208333
        k(   16) = (   0.0000000   0.4811252   0.0000000), wk =   0.0208333
        k(   17) = (   0.0000000   0.4811252   0.0927749), wk =   0.0416667
        k(   18) = (   0.0000000   0.4811252  -0.1855498), wk =   0.0208333
        k(   19) = (   0.0000000  -0.5773503   0.0000000), wk =   0.0104167
        k(   20) = (   0.0000000  -0.5773503   0.0927749), wk =   0.0208333
        k(   21) = (   0.0000000  -0.5773503  -0.1855498), wk =   0.0104167
        k(   22) = (   0.0833333   0.1443376   0.0000000), wk =   0.0208333
        k(   23) = (   0.0833333   0.1443376   0.0927749), wk =   0.0416667
        k(   24) = (   0.0833333   0.1443376  -0.1855498), wk =   0.0208333
        k(   25) = (   0.0833333   0.2405626   0.0000000), wk =   0.0416667
        k(   26) = (   0.0833333   0.2405626   0.0927749), wk =   0.0833333
        k(   27) = (   0.0833333   0.2405626  -0.1855498), wk =   0.0416667
        k(   28) = (   0.0833333   0.3367877   0.0000000), wk =   0.0416667
        k(   29) = (   0.0833333   0.3367877   0.0927749), wk =   0.0833333
        k(   30) = (   0.0833333   0.3367877  -0.1855498), wk =   0.0416667
        k(   31) = (   0.0833333   0.4330127   0.0000000), wk =   0.0416667
        k(   32) = (   0.0833333   0.4330127   0.0927749), wk =   0.0833333
        k(   33) = (   0.0833333   0.4330127  -0.1855498), wk =   0.0416667
        k(   34) = (   0.0833333   0.5292377   0.0000000), wk =   0.0416667
        k(   35) = (   0.0833333   0.5292377   0.0927749), wk =   0.0833333
        k(   36) = (   0.0833333   0.5292377  -0.1855498), wk =   0.0416667
        k(   37) = (   0.1666667   0.2886751   0.0000000), wk =   0.0208333
        k(   38) = (   0.1666667   0.2886751   0.0927749), wk =   0.0416667
        k(   39) = (   0.1666667   0.2886751  -0.1855498), wk =   0.0208333
        k(   40) = (   0.1666667   0.3849002   0.0000000), wk =   0.0416667
        k(   41) = (   0.1666667   0.3849002   0.0927749), wk =   0.0833333
        k(   42) = (   0.1666667   0.3849002  -0.1855498), wk =   0.0416667
        k(   43) = (   0.1666667   0.4811252   0.0000000), wk =   0.0416667
        k(   44) = (   0.1666667   0.4811252   0.0927749), wk =   0.0833333
        k(   45) = (   0.1666667   0.4811252  -0.1855498), wk =   0.0416667
        k(   46) = (   0.1666667   0.5773503   0.0000000), wk =   0.0208333
        k(   47) = (   0.1666667   0.5773503   0.0927749), wk =   0.0416667
        k(   48) = (   0.1666667   0.5773503  -0.1855498), wk =   0.0208333
        k(   49) = (   0.2500000   0.4330127   0.0000000), wk =   0.0208333
        k(   50) = (   0.2500000   0.4330127   0.0927749), wk =   0.0416667
        k(   51) = (   0.2500000   0.4330127  -0.1855498), wk =   0.0208333
        k(   52) = (   0.2500000   0.5292377   0.0000000), wk =   0.0416667
        k(   53) = (   0.2500000   0.5292377   0.0927749), wk =   0.0833333
        k(   54) = (   0.2500000   0.5292377  -0.1855498), wk =   0.0416667
        k(   55) = (   0.3333333   0.5773503   0.0000000), wk =   0.0069444
        k(   56) = (   0.3333333   0.5773503   0.0927749), wk =   0.0138889
        k(   57) = (   0.3333333   0.5773503  -0.1855498), wk =   0.0069444

     Check: negative core charge=   -0.000006

     Initial potential from superposition of free atoms

     starting charge      15.9998, renormalised to      16.0000
     Starting wfcs are   16 randomized atomic wfcs
     Checking if some PAW data can be deallocated...

     Self-consistent Calculation

     iteration #  1     ecut=    50.00 Ry     beta= 0.70
     Davidson diagonalization with overlap
     ethr =  1.00E-02,  avg # of iterations =  3.0

     total energy              =     -72.44002064 Ry
     estimated scf accuracy    <       0.35637284 Ry

[...]

     iteration #  3     ecut=    50.00 Ry     beta= 0.70
     Davidson diagonalization with overlap
     c_bands:  1 eigenvalues not converged
     ethr =  2.42E-05,  avg # of iterations =  7.2

[...]

     iteration #  4     ecut=    50.00 Ry     beta= 0.70
     Davidson diagonalization with overlap
     c_bands:  1 eigenvalues not converged
     ethr =  1.65E-06,  avg # of iterations =  4.2

[...]

     total energy              =     -72.48324451 Ry
     estimated scf accuracy    <          2.7E-09 Ry

     iteration #  7     ecut=    50.00 Ry     beta= 0.70
     Davidson diagonalization with overlap
     ethr =  1.67E-11,  avg # of iterations =  3.3

     End of self-consistent calculation

          k = 0.0000 0.0000 0.0000 (  1385 PWs)   bands (ev):

   -12.5730 -12.2331  -1.5640   0.5844   4.1444   4.1444   4.1655   4.1655
    11.2522  15.4887  15.4889  15.5478

[...]

          k = 0.3333 0.5774-0.1855 (  1398 PWs)   bands (ev):

    -5.4140  -5.4140  -5.4061  -5.4061  -3.5172  -3.5172   7.1119   7.1119
     7.1349   7.1349  17.0660  17.0660

     the Fermi energy is     7.1139 ev

!    total energy              =     -72.48324452 Ry
     total all-electron energy =      -303.599356 Ry
     estimated scf accuracy    <          2.2E-11 Ry
     smearing contrib. (-TS)   =      -0.00039515 Ry
     internal energy E=F+TS    =     -72.48284936 Ry

     The total energy is F=E-TS. E is the sum of the following terms:
     one-electron contribution =      -9.18366593 Ry
     hartree contribution      =      13.04017792 Ry
     xc contribution           =     -18.35621840 Ry
     ewald contribution        =     -34.40195268 Ry
     DFT-D3 Dispersion         =      -0.01918199 Ry
     one-center paw contrib.   =     -23.56200827 Ry

     convergence has been achieved in   7 iterations

     Writing all to output data dir ./temp/graphite.save/ :
     XML data file, charge density, pseudopotentials, collected wavefunctions

     General routines

     Parallel routines

   This run was terminated on:   4:52:33  26Dec2024

   JOB DONE.