     Program PWSCF v.7.3.1 starts on 25Dec2024 at 20:53:21

     Reading input from vc_relax.in

     Current dimensions of program PWSCF are:
     Max number of different atomic species (ntypx) = 10
     Max number of k-points (npk) =  40000
     Max angular momentum in pseudopotentials (lmaxx) =  4
     file C.pbesol-n-kjpaw_psl.1.0.0.UPF: wavefunction(s)  2S 2P renormalized

     R & G space division:  proc/nbgrp/npool/nimage =       4
     Subspace diagonalization in iterative solution of the eigenvalue problem:
     a serial algorithm will be used

     Using Slab Decomposition

     bravais-lattice index     =            4
     lattice parameter (alat)  =       4.6625  a.u.
     unit-cell volume          =     277.6091 (a.u.)^3
     number of atoms/cell      =            4
     number of atomic types    =            1
     number of electrons       =        16.00
     number of Kohn-Sham states=           12
     kinetic-energy cutoff     =      40.0000  Ry
     charge density cutoff     =     320.0000  Ry
     scf convergence threshold =      1.0E-07
     mixing beta               =       0.7000
     number of iterations used =            8  plain     mixing
     energy convergence thresh.=      1.0E-05
     force convergence thresh. =      1.0E-04
     press convergence thresh. =      5.0E-01
     Exchange-correlation= SLA  PW   PSX  PSC
                           (   1   4  10   8   0   0   0)
     nstep                     =           50

     celldm(1)=   4.662505  celldm(2)=   0.000000  celldm(3)=   3.162607
     celldm(4)=   0.000000  celldm(5)=   0.000000  celldm(6)=   0.000000

     crystal axes: (cart. coord. in units of alat)
               a(1) = (   1.000000   0.000000   0.000000 )
               a(2) = (  -0.500000   0.866025   0.000000 )
               a(3) = (   0.000000   0.000000   3.162607 )

     reciprocal axes: (cart. coord. in units 2 pi/alat)
               b(1) = (  1.000000  0.577350 -0.000000 )
               b(2) = (  0.000000  1.154701  0.000000 )
               b(3) = (  0.000000 -0.000000  0.316195 )

     PseudoPot. # 1 for C  read from file:
     ./../../pseudos/C.pbesol-n-kjpaw_psl.1.0.0.UPF
     MD5 check sum: f9b2fe17d1f478429498b05d17159f9e
     Pseudo is Projector augmented-wave + core cor, Zval =  4.0
     Generated using &quot;atomic&quot; code by A. Dal Corso  v.6.3
     Shape of augmentation charge: PSQ
     Using radial grid of 1073 points,  4 beta functions with:
                l(1) =   0
                l(2) =   0
                l(3) =   1
                l(4) =   1
     Q(r) pseudized with 0 coefficients

     atomic species   valence    mass     pseudopotential
     C                 4.00    12.01100     C ( 1.00)

     24 Sym. Ops., with inversion, found (12 have fractional translation)

   Cartesian axes

     site n.     atom                  positions (alat units)
         1        C      tau(   1) = (   0.0000000   0.0000000   0.7906518  )
         2        C      tau(   2) = (   0.0000000   0.0000000   2.3719553  )
         3        C      tau(   3) = (   0.0000000   0.5773503   0.7906518  )
         4        C      tau(   4) = (   0.5000000   0.2886751   2.3719553  )

     number of k points=    57  Gaussian smearing, width (Ry)=  0.0200
                       cart. coord. in units 2pi/alat
        k(    1) = (   0.0000000   0.0000000   0.0000000), wk =   0.0034722
        k(    2) = (   0.0000000   0.0000000   0.0790487), wk =   0.0069444
        k(    3) = (   0.0000000   0.0000000  -0.1580974), wk =   0.0034722
        k(    4) = (   0.0000000   0.0962250   0.0000000), wk =   0.0208333
        k(    5) = (   0.0000000   0.0962250   0.0790487), wk =   0.0416667
        k(    6) = (   0.0000000   0.0962250  -0.1580974), wk =   0.0208333
        k(    7) = (   0.0000000   0.1924501   0.0000000), wk =   0.0208333
        k(    8) = (   0.0000000   0.1924501   0.0790487), wk =   0.0416667
        k(    9) = (   0.0000000   0.1924501  -0.1580974), wk =   0.0208333
        k(   10) = (   0.0000000   0.2886751   0.0000000), wk =   0.0208333
        k(   11) = (   0.0000000   0.2886751   0.0790487), wk =   0.0416667
        k(   12) = (   0.0000000   0.2886751  -0.1580974), wk =   0.0208333
        k(   13) = (   0.0000000   0.3849002   0.0000000), wk =   0.0208333
        k(   14) = (   0.0000000   0.3849002   0.0790487), wk =   0.0416667
        k(   15) = (   0.0000000   0.3849002  -0.1580974), wk =   0.0208333
        k(   16) = (   0.0000000   0.4811252   0.0000000), wk =   0.0208333
        k(   17) = (   0.0000000   0.4811252   0.0790487), wk =   0.0416667
        k(   18) = (   0.0000000   0.4811252  -0.1580974), wk =   0.0208333
        k(   19) = (   0.0000000  -0.5773503   0.0000000), wk =   0.0104167
        k(   20) = (   0.0000000  -0.5773503   0.0790487), wk =   0.0208333
        k(   21) = (   0.0000000  -0.5773503  -0.1580974), wk =   0.0104167
        k(   22) = (   0.0833333   0.1443376   0.0000000), wk =   0.0208333
        k(   23) = (   0.0833333   0.1443376   0.0790487), wk =   0.0416667
        k(   24) = (   0.0833333   0.1443376  -0.1580974), wk =   0.0208333
        k(   25) = (   0.0833333   0.2405626   0.0000000), wk =   0.0416667
        k(   26) = (   0.0833333   0.2405626   0.0790487), wk =   0.0833333
        k(   27) = (   0.0833333   0.2405626  -0.1580974), wk =   0.0416667
        k(   28) = (   0.0833333   0.3367877   0.0000000), wk =   0.0416667
        k(   29) = (   0.0833333   0.3367877   0.0790487), wk =   0.0833333
        k(   30) = (   0.0833333   0.3367877  -0.1580974), wk =   0.0416667
        k(   31) = (   0.0833333   0.4330127   0.0000000), wk =   0.0416667
        k(   32) = (   0.0833333   0.4330127   0.0790487), wk =   0.0833333
        k(   33) = (   0.0833333   0.4330127  -0.1580974), wk =   0.0416667
        k(   34) = (   0.0833333   0.5292377   0.0000000), wk =   0.0416667
        k(   35) = (   0.0833333   0.5292377   0.0790487), wk =   0.0833333
        k(   36) = (   0.0833333   0.5292377  -0.1580974), wk =   0.0416667
        k(   37) = (   0.1666667   0.2886751   0.0000000), wk =   0.0208333
        k(   38) = (   0.1666667   0.2886751   0.0790487), wk =   0.0416667
        k(   39) = (   0.1666667   0.2886751  -0.1580974), wk =   0.0208333
        k(   40) = (   0.1666667   0.3849002   0.0000000), wk =   0.0416667
        k(   41) = (   0.1666667   0.3849002   0.0790487), wk =   0.0833333
        k(   42) = (   0.1666667   0.3849002  -0.1580974), wk =   0.0416667
        k(   43) = (   0.1666667   0.4811252   0.0000000), wk =   0.0416667
        k(   44) = (   0.1666667   0.4811252   0.0790487), wk =   0.0833333
        k(   45) = (   0.1666667   0.4811252  -0.1580974), wk =   0.0416667
        k(   46) = (   0.1666667   0.5773503   0.0000000), wk =   0.0208333
        k(   47) = (   0.1666667   0.5773503   0.0790487), wk =   0.0416667
        k(   48) = (   0.1666667   0.5773503  -0.1580974), wk =   0.0208333
        k(   49) = (   0.2500000   0.4330127   0.0000000), wk =   0.0208333
        k(   50) = (   0.2500000   0.4330127   0.0790487), wk =   0.0416667
        k(   51) = (   0.2500000   0.4330127  -0.1580974), wk =   0.0208333
        k(   52) = (   0.2500000   0.5292377   0.0000000), wk =   0.0416667
        k(   53) = (   0.2500000   0.5292377   0.0790487), wk =   0.0833333
        k(   54) = (   0.2500000   0.5292377  -0.1580974), wk =   0.0416667
        k(   55) = (   0.3333333   0.5773503   0.0000000), wk =   0.0069444
        k(   56) = (   0.3333333   0.5773503   0.0790487), wk =   0.0138889
        k(   57) = (   0.3333333   0.5773503  -0.1580974), wk =   0.0069444

     Check: negative core charge=   -0.000011

     Initial potential from superposition of free atoms

     starting charge      15.9998, renormalised to      16.0000
     Starting wfcs are   16 randomized atomic wfcs
     Checking if some PAW data can be deallocated...

     Self-consistent Calculation

     iteration #  1     ecut=    40.00 Ry     beta= 0.70
     Davidson diagonalization with overlap
     ethr =  1.00E-02,  avg # of iterations =  2.9

     total energy              =     -72.41347211 Ry
     estimated scf accuracy    <       0.37122049 Ry

[...]

     iteration #  3     ecut=    40.00 Ry     beta= 0.70
     Davidson diagonalization with overlap
     c_bands:  1 eigenvalues not converged
     ethr =  2.34E-05,  avg # of iterations =  7.2

[...]

     End of self-consistent calculation

          k = 0.0000 0.0000 0.0000 (  1193 PWs)   bands (ev):

   -14.1529 -14.0668  -2.6970  -1.8294   2.3528   2.3528   2.3571   2.3571
     8.6153  13.6477  13.6478  13.6615

[...]

     the Fermi energy is     5.3607 ev

!    total energy              =     -72.46310403 Ry
     total all-electron energy =      -303.579215 Ry
     estimated scf accuracy    <       0.00000004 Ry
     smearing contrib. (-TS)   =      -0.00052278 Ry
     internal energy E=F+TS    =     -72.46258125 Ry

     The total energy is F=E-TS. E is the sum of the following terms:
     one-electron contribution =     -22.93501564 Ry
     hartree contribution      =      18.85518496 Ry
     xc contribution           =     -18.30992148 Ry
     ewald contribution        =     -26.51210758 Ry
     one-center paw contrib.   =     -23.56072151 Ry

     convergence has been achieved in   6 iterations

     Forces acting on atoms (cartesian axes, Ry/au):

     atom    1 type  1   force =     0.00000000   -0.00000000    0.00000000
     atom    2 type  1   force =     0.00000000   -0.00000000    0.00000000
     atom    3 type  1   force =    -0.00000000   -0.00000000    0.00000000
     atom    4 type  1   force =     0.00000000    0.00000000    0.00000000

     Total force =     0.000000     Total SCF correction =     0.000000

     Computing stress (Cartesian axis) and pressure

          total   stress  (Ry/bohr**3)                   (kbar)     P=      -29.48
  -0.00026511   0.00000000   0.00000000          -39.00        0.00        0.00
   0.00000000  -0.00026511   0.00000000            0.00      -39.00        0.00
   0.00000000   0.00000000  -0.00007103            0.00        0.00      -10.45

     BFGS Geometry Optimization
     Energy error            =      0.0E+00 Ry
     Gradient error          =      2.1E-25 Ry/Bohr
     Cell gradient error     =      3.9E+01 kbar

     number of scf cycles    =   1
     number of bfgs steps    =   0

     enthalpy           new  =     -72.4631040289 Ry

     new trust radius        =       0.0220855480 bohr
ibrav =      4
 celldm(1) =      4.63160336
 celldm(3) =      3.17805435
Input lattice vectors:
     0.99337232     0.00000000     0.00000000
    -0.49668616     0.86028567     0.00000000
     0.00000000     0.00000000     3.15699123
New lattice vectors in INITIAL alat:
     0.99337232     0.00000000     0.00000000
    -0.49668616     0.86028567     0.00000000
     0.00000000     0.00000000     3.15699123
New lattice vectors in NEW alat (for information only):
     1.00000000     0.00000000     0.00000000
    -0.50000000     0.86602540     0.00000000
     0.00000000     0.00000000     3.17805435
Discrepancy in bohr =     0.000000    0.000000    0.000000
     new conv_thr            =       0.0000001000 Ry

     new unit-cell volume =    273.45510 a.u.^3 (    40.52187 Ang^3 )
     density =      1.96879 g/cm^3

CELL_PARAMETERS (alat=  4.66250493)
   0.993372324   0.000000000   0.000000000
  -0.496686162   0.860285668   0.000000000
   0.000000000   0.000000000   3.156991233

ATOMIC_POSITIONS (crystal)
C               -0.0000000000       -0.0000000000        0.2500000000
C               -0.0000000000       -0.0000000000        0.7500000000
C                0.3333333330        0.6666666660        0.2500000000
C                0.6666666660        0.3333333330        0.7500000000

     Writing config-only to output data dir ./temp/graphite.save/ :
     XML data file
     NEW-OLD atomic charge density approx. for the potential

[...]

     Energy error            =      1.0E-04 Ry
     Gradient error          =      1.4E-25 Ry/Bohr
     Cell gradient error     =      3.4E+01 kbar

[...]

     enthalpy           old  =     -72.4631040289 Ry
     enthalpy           new  =     -72.4632063476 Ry

     CASE: enthalpy          _new < enthalpy          _old

[...]

     Threshold (ethr) on eigenvalues was too large:
     Diagonalizing with lowered threshold

     Davidson diagonalization with overlap
     ethr =  3.27E-09,  avg # of iterations =  2.1

[...]

     WARNING: bfgs curvature condition failed, Theta= 0.868
     new trust radius        =       0.0070359442 bohr
ibrav =      4
 celldm(1) =      4.64702898
 celldm(3) =      3.15155512
Input lattice vectors:
     0.99668076    -0.00000000    -0.00000000
    -0.49834038     0.86315086     0.00000000
     0.00000000    -0.00000000     3.14109437
New lattice vectors in INITIAL alat:
     0.99668076     0.00000000     0.00000000
    -0.49834038     0.86315086     0.00000000
     0.00000000     0.00000000     3.14109437
New lattice vectors in NEW alat (for information only):
     1.00000000     0.00000000     0.00000000
    -0.50000000     0.86602540     0.00000000
     0.00000000     0.00000000     3.15155512
Discrepancy in bohr =     0.000000    0.000000    0.000000
     new conv_thr            =       0.0000000010 Ry

[...]

     Energy error            =      2.3E-06 Ry
     Gradient error          =      1.9E-25 Ry/Bohr
     Cell gradient error     =      5.7E-01 kbar

     number of scf cycles    =  13
     number of bfgs steps    =  12

     enthalpy           old  =     -72.4642470388 Ry
     enthalpy           new  =     -72.4642493800 Ry

     CASE: enthalpy          _new < enthalpy          _old

     new trust radius        =       0.0008879815 bohr
ibrav =      4
 celldm(1) =      4.64641893
 celldm(3) =      2.88974334
Input lattice vectors:
     0.99654992    -0.00000000     0.00000000
    -0.49827496     0.86303755     0.00000000
    -0.00000000     0.00000000     2.87977350
New lattice vectors in INITIAL alat:
     0.99654992     0.00000000     0.00000000
    -0.49827496     0.86303755     0.00000000
     0.00000000     0.00000000     2.87977350
New lattice vectors in NEW alat (for information only):
     1.00000000     0.00000000     0.00000000
    -0.50000000     0.86602540     0.00000000
     0.00000000     0.00000000     2.88974334
Discrepancy in bohr =     0.000000    0.000000    0.000000
     new conv_thr            =       0.0000000010 Ry

     new unit-cell volume =    251.04120 a.u.^3 (    37.20047 Ang^3 )
     density =      2.14457 g/cm^3

[...]

ATOMIC_POSITIONS (crystal)
C               -0.0000000000        0.0000000000        0.2500000000
C                0.0000000000       -0.0000000000        0.7500000000
C                0.3333333330        0.6666666660        0.2500000000
C                0.6666666660        0.3333333330        0.7500000000

     Writing config-only to output data dir ./temp/graphite.save/ :
     XML data file
     NEW-OLD atomic charge density approx. for the potential

[...]

     Threshold (ethr) on eigenvalues was too large:
     Diagonalizing with lowered threshold

     Davidson diagonalization with overlap
     ethr =  1.29E-10,  avg # of iterations =  2.5

[...]

     Energy error            =      5.3E-08 Ry
     Gradient error          =      2.1E-25 Ry/Bohr
     Cell gradient error     =      2.7E-01 kbar
ibrav =      4
 celldm(1) =      4.64641893
 celldm(3) =      2.88974334
Input lattice vectors:
     0.99654992     0.00000000     0.00000000
    -0.49827496     0.86303755     0.00000000
     0.00000000     0.00000000     2.87977350
New lattice vectors in INITIAL alat:
     0.99654992     0.00000000     0.00000000
    -0.49827496     0.86303755     0.00000000
     0.00000000     0.00000000     2.87977350
New lattice vectors in NEW alat (for information only):
     1.00000000     0.00000000     0.00000000
    -0.50000000     0.86602540     0.00000000
     0.00000000     0.00000000     2.88974334
Discrepancy in bohr =     0.000000    0.000000    0.000000

     bfgs converged in  14 scf cycles and  13 bfgs steps
     (criteria: energy <  1.0E-05 Ry, force <  1.0E-04 Ry/Bohr, cell <  5.0E-01 kbar)

     End of BFGS Geometry Optimization

     Final enthalpy           =     -72.4642494329 Ry

     File ./temp/graphite.bfgs deleted, as requested
Begin final coordinates
     new unit-cell volume =    251.04120 a.u.^3 (    37.20047 Ang^3 )
     density =      2.14457 g/cm^3

CELL_PARAMETERS (alat=  4.66250493)
   0.996549923   0.000000000   0.000000000
  -0.498274962   0.863037550   0.000000000
   0.000000000   0.000000000   2.879773504

ATOMIC_POSITIONS (crystal)
C               -0.0000000000        0.0000000000        0.2500000000
C                0.0000000000       -0.0000000000        0.7500000000
C                0.3333333330        0.6666666660        0.2500000000
C                0.6666666660        0.3333333330        0.7500000000
End final coordinates

     Writing config-only to output data dir ./temp/graphite.save/ :
     XML data file

     Final scf calculation at the relaxed structure.
     The G-vectors are recalculated for the final unit cell
     Results may differ from those at the preceding step.

     Using Slab Decomposition

     bravais-lattice index     =            4
     lattice parameter (alat)  =       4.6625  a.u.
     unit-cell volume          =     251.0412 (a.u.)^3
     number of atoms/cell      =            4
     number of atomic types    =            1
     number of electrons       =        16.00
     number of Kohn-Sham states=           12
     kinetic-energy cutoff     =      40.0000  Ry
     charge density cutoff     =     320.0000  Ry
     scf convergence threshold =      1.0E-09
     mixing beta               =       0.7000
     number of iterations used =            8  plain     mixing
     press convergence thresh. =      5.0E-01
     Exchange-correlation= SLA  PW   PSX  PSC
                           (   1   4  10   8   0   0   0)

     celldm(1)=   4.662505  celldm(2)=   0.000000  celldm(3)=   3.162607
     celldm(4)=   0.000000  celldm(5)=   0.000000  celldm(6)=   0.000000

     crystal axes: (cart. coord. in units of alat)
               a(1) = (   0.996550   0.000000   0.000000 )
               a(2) = (  -0.498275   0.863038   0.000000 )
               a(3) = (   0.000000   0.000000   2.879774 )

     reciprocal axes: (cart. coord. in units 2 pi/alat)
               b(1) = (  1.003462  0.579349 -0.000000 )
               b(2) = (  0.000000  1.158698  0.000000 )
               b(3) = (  0.000000 -0.000000  0.347250 )

     PseudoPot. # 1 for C  read from file:
     ./../../pseudos/C.pbesol-n-kjpaw_psl.1.0.0.UPF
     MD5 check sum: f9b2fe17d1f478429498b05d17159f9e
     Pseudo is Projector augmented-wave + core cor, Zval =  4.0
     Generated using &quot;atomic&quot; code by A. Dal Corso  v.6.3
     Shape of augmentation charge: PSQ
     Using radial grid of 1073 points,  4 beta functions with:
                l(1) =   0
                l(2) =   0
                l(3) =   1
                l(4) =   1
     Q(r) pseudized with 0 coefficients

     atomic species   valence    mass     pseudopotential
     C                 4.00    12.01100     C ( 1.00)

     24 Sym. Ops., with inversion, found (12 have fractional translation)

   Cartesian axes

     site n.     atom                  positions (alat units)
         1        C      tau(   1) = (  -0.0000000   0.0000000   0.7199434  )
         2        C      tau(   2) = (   0.0000000  -0.0000000   2.1598301  )
         3        C      tau(   3) = (   0.0000000   0.5753584   0.7199434  )
         4        C      tau(   4) = (   0.4982750   0.2876792   2.1598301  )

     number of k points=    57  Gaussian smearing, width (Ry)=  0.0200
                       cart. coord. in units 2pi/alat
        k(    1) = (   0.0000000   0.0000000   0.0000000), wk =   0.0034722
        k(    2) = (   0.0000000   0.0000000   0.0868124), wk =   0.0069444
        k(    3) = (   0.0000000   0.0000000  -0.1736248), wk =   0.0034722
        k(    4) = (   0.0000000   0.0965582   0.0000000), wk =   0.0208333
        k(    5) = (   0.0000000   0.0965582   0.0868124), wk =   0.0416667
        k(    6) = (   0.0000000   0.0965582  -0.1736248), wk =   0.0208333
        k(    7) = (   0.0000000   0.1931164   0.0000000), wk =   0.0208333
        k(    8) = (   0.0000000   0.1931164   0.0868124), wk =   0.0416667
        k(    9) = (   0.0000000   0.1931164  -0.1736248), wk =   0.0208333
        k(   10) = (   0.0000000   0.2896745   0.0000000), wk =   0.0208333
        k(   11) = (   0.0000000   0.2896745   0.0868124), wk =   0.0416667
        k(   12) = (   0.0000000   0.2896745  -0.1736248), wk =   0.0208333
        k(   13) = (   0.0000000   0.3862327   0.0000000), wk =   0.0208333
        k(   14) = (   0.0000000   0.3862327   0.0868124), wk =   0.0416667
        k(   15) = (   0.0000000   0.3862327  -0.1736248), wk =   0.0208333
        k(   16) = (   0.0000000   0.4827909   0.0000000), wk =   0.0208333
        k(   17) = (   0.0000000   0.4827909   0.0868124), wk =   0.0416667
        k(   18) = (   0.0000000   0.4827909  -0.1736248), wk =   0.0208333
        k(   19) = (   0.0000000  -0.5793491   0.0000000), wk =   0.0104167
        k(   20) = (   0.0000000  -0.5793491   0.0868124), wk =   0.0208333
        k(   21) = (   0.0000000  -0.5793491  -0.1736248), wk =   0.0104167
        k(   22) = (   0.0836218   0.1448373   0.0000000), wk =   0.0208333
        k(   23) = (   0.0836218   0.1448373   0.0868124), wk =   0.0416667
        k(   24) = (   0.0836218   0.1448373  -0.1736248), wk =   0.0208333
        k(   25) = (   0.0836218   0.2413954   0.0000000), wk =   0.0416667
        k(   26) = (   0.0836218   0.2413954   0.0868124), wk =   0.0833333
        k(   27) = (   0.0836218   0.2413954  -0.1736248), wk =   0.0416667
        k(   28) = (   0.0836218   0.3379536   0.0000000), wk =   0.0416667
        k(   29) = (   0.0836218   0.3379536   0.0868124), wk =   0.0833333
        k(   30) = (   0.0836218   0.3379536  -0.1736248), wk =   0.0416667
        k(   31) = (   0.0836218   0.4345118   0.0000000), wk =   0.0416667
        k(   32) = (   0.0836218   0.4345118   0.0868124), wk =   0.0833333
        k(   33) = (   0.0836218   0.4345118  -0.1736248), wk =   0.0416667
        k(   34) = (   0.0836218   0.5310700   0.0000000), wk =   0.0416667
        k(   35) = (   0.0836218   0.5310700   0.0868124), wk =   0.0833333
        k(   36) = (   0.0836218   0.5310700  -0.1736248), wk =   0.0416667
        k(   37) = (   0.1672437   0.2896745   0.0000000), wk =   0.0208333
        k(   38) = (   0.1672437   0.2896745   0.0868124), wk =   0.0416667
        k(   39) = (   0.1672437   0.2896745  -0.1736248), wk =   0.0208333
        k(   40) = (   0.1672437   0.3862327   0.0000000), wk =   0.0416667
        k(   41) = (   0.1672437   0.3862327   0.0868124), wk =   0.0833333
        k(   42) = (   0.1672437   0.3862327  -0.1736248), wk =   0.0416667
        k(   43) = (   0.1672437   0.4827909   0.0000000), wk =   0.0416667
        k(   44) = (   0.1672437   0.4827909   0.0868124), wk =   0.0833333
        k(   45) = (   0.1672437   0.4827909  -0.1736248), wk =   0.0416667
        k(   46) = (   0.1672437   0.5793491   0.0000000), wk =   0.0208333
        k(   47) = (   0.1672437   0.5793491   0.0868124), wk =   0.0416667
        k(   48) = (   0.1672437   0.5793491  -0.1736248), wk =   0.0208333
        k(   49) = (   0.2508655   0.4345118   0.0000000), wk =   0.0208333
        k(   50) = (   0.2508655   0.4345118   0.0868124), wk =   0.0416667
        k(   51) = (   0.2508655   0.4345118  -0.1736248), wk =   0.0208333
        k(   52) = (   0.2508655   0.5310700   0.0000000), wk =   0.0416667
        k(   53) = (   0.2508655   0.5310700   0.0868124), wk =   0.0833333
        k(   54) = (   0.2508655   0.5310700  -0.1736248), wk =   0.0416667
        k(   55) = (   0.3344873   0.5793491   0.0000000), wk =   0.0069444
        k(   56) = (   0.3344873   0.5793491   0.0868124), wk =   0.0138889
        k(   57) = (   0.3344873   0.5793491  -0.1736248), wk =   0.0069444

     Check: negative core charge=   -0.000012

     Initial potential from superposition of free atoms

     starting charge      15.9998, renormalised to      16.0000
     Starting wfcs are   16 randomized atomic wfcs
     Checking if some PAW data can be deallocated...

     Self-consistent Calculation

     iteration #  1     ecut=    40.00 Ry     beta= 0.70
     Davidson diagonalization with overlap
     c_bands:  1 eigenvalues not converged
     c_bands:  1 eigenvalues not converged
     c_bands:  1 eigenvalues not converged
     c_bands:  1 eigenvalues not converged
     c_bands:  2 eigenvalues not converged
     c_bands:  1 eigenvalues not converged
     c_bands:  2 eigenvalues not converged
     c_bands:  2 eigenvalues not converged
     c_bands:  2 eigenvalues not converged
     c_bands:  2 eigenvalues not converged
     c_bands:  2 eigenvalues not converged
     c_bands:  2 eigenvalues not converged
     c_bands:  2 eigenvalues not converged
     c_bands:  1 eigenvalues not converged
     c_bands:  2 eigenvalues not converged
     c_bands:  2 eigenvalues not converged
     c_bands:  2 eigenvalues not converged
     c_bands:  2 eigenvalues not converged
     ethr =  1.00E-06,  avg # of iterations = 14.9

[...]

     total energy              =     -72.46350917 Ry
     estimated scf accuracy    <          3.3E-09 Ry

     iteration #  8     ecut=    40.00 Ry     beta= 0.70
     Davidson diagonalization with overlap
     ethr =  2.06E-11,  avg # of iterations =  1.9

     End of self-consistent calculation

[...]

          k = 0.3345 0.5793-0.1736 (  1074 PWs)   bands (ev):

    -6.1834  -6.1834  -6.1800  -6.1800  -4.2879  -4.2879   6.3615   6.3615
     6.3730   6.3730  16.3890  16.3890

     the Fermi energy is     6.3649 ev

!    total energy              =     -72.46350917 Ry
     total all-electron energy =      -303.579620 Ry
     estimated scf accuracy    <          1.6E-10 Ry
     smearing contrib. (-TS)   =      -0.00042734 Ry
     internal energy E=F+TS    =     -72.46308183 Ry

     The total energy is F=E-TS. E is the sum of the following terms:
     one-electron contribution =     -14.78701682 Ry
     hartree contribution      =      15.38176684 Ry
     xc contribution           =     -18.34639734 Ry
     ewald contribution        =     -31.14931927 Ry
     one-center paw contrib.   =     -23.56211523 Ry

     convergence has been achieved in   8 iterations

     Forces acting on atoms (cartesian axes, Ry/au):

     atom    1 type  1   force =     0.00000000   -0.00000000    0.00000000
     atom    2 type  1   force =     0.00000000    0.00000000    0.00000000
     atom    3 type  1   force =     0.00000000   -0.00000000    0.00000000
     atom    4 type  1   force =     0.00000000    0.00000000    0.00000000

     Total force =     0.000000     Total SCF correction =     0.000000

     Computing stress (Cartesian axis) and pressure

          total   stress  (Ry/bohr**3)                   (kbar)     P=       -3.81
  -0.00001831   0.00000000   0.00000000           -2.69        0.00        0.00
   0.00000000  -0.00001831   0.00000000            0.00       -2.69        0.00
   0.00000000   0.00000000  -0.00004115            0.00        0.00       -6.05

     Writing all to output data dir ./temp/graphite.save/ :
     XML data file, charge density, pseudopotentials, collected wavefunctions

     General routines

     Parallel routines

   This run was terminated on:  20:53:59  25Dec2024

   JOB DONE.