     Program PWSCF v.7.3.1 starts on 31Jan2025 at 11:10:54

     Reading input from relax.in

     Current dimensions of program PWSCF are:
     Max number of different atomic species (ntypx) = 10
     Max number of k-points (npk) =  40000
     Max angular momentum in pseudopotentials (lmaxx) =  4
     file Mn.pbe-spn-kjpaw_psl.0.3.1.UPF: wavefunction(s)  3P 3D renormalized
     file Mn.pbe-spn-kjpaw_psl.0.3.1.UPF: wavefunction(s)  3P 3D renormalized
     file S.pbe-n-kjpaw_psl.1.0.0.UPF: wavefunction(s)  3S 3P renormalized
     Message from routine setup:
     using ibrav=0 with symmetry is DISCOURAGED, use correct ibrav instead

     R & G space division:  proc/nbgrp/npool/nimage =       6
     Subspace diagonalization in iterative solution of the eigenvalue problem:
     a serial algorithm will be used

     Using Slab Decomposition

     bravais-lattice index     =            0
     lattice parameter (alat)  =      14.7866  a.u.
     unit-cell volume          =     571.5148 (a.u.)^3
     number of atoms/cell      =            4
     number of atomic types    =            3
     number of electrons       =        42.00
     number of Kohn-Sham states=           25
     kinetic-energy cutoff     =      30.0000  Ry
     charge density cutoff     =     150.0000  Ry
     scf convergence threshold =      1.0E-10
     mixing beta               =       0.7000
     number of iterations used =            8  plain     mixing
     energy convergence thresh.=      1.0E-05
     force convergence thresh. =      1.0E-04
     Exchange-correlation= SLA  PW   PBX  PBC
                           (   1   4   3   4   0   0   0)
     nstep                     =           50

     celldm(1)=  14.786571  celldm(2)=   0.000000  celldm(3)=   0.000000
     celldm(4)=   0.000000  celldm(5)=   0.000000  celldm(6)=   0.000000

     crystal axes: (cart. coord. in units of alat)
               a(1) = (   1.000000   0.000000   0.000000 )
               a(2) = (   0.250000   0.433013   0.000000 )
               a(3) = (   0.250000   0.144338   0.408248 )

     reciprocal axes: (cart. coord. in units 2 pi/alat)
               b(1) = (  1.000000 -0.577350 -0.408248 )
               b(2) = (  0.000000  2.309401 -0.816496 )
               b(3) = (  0.000000  0.000000  2.449490 )

     PseudoPot. # 1 for Mn read from file:
     ./../../../pseudos/Mn.pbe-spn-kjpaw_psl.0.3.1.UPF
     MD5 check sum: ba19e6d7ccbc12830efad05ba8577d9c
     Pseudo is Projector augmented-wave + core cor, Zval = 15.0
     Generated using &quot;atomic&quot; code by A. Dal Corso  v.6.2.2
     Shape of augmentation charge: PSQ
     Using radial grid of 1187 points,  6 beta functions with:
                l(1) =   0
                l(2) =   0
                l(3) =   1
                l(4) =   1
                l(5) =   2
                l(6) =   2
     Q(r) pseudized with 0 coefficients

     PseudoPot. # 2 for Mn read from file:
     ./../../../pseudos/Mn.pbe-spn-kjpaw_psl.0.3.1.UPF
     MD5 check sum: ba19e6d7ccbc12830efad05ba8577d9c
     Pseudo is Projector augmented-wave + core cor, Zval = 15.0
     Generated using &quot;atomic&quot; code by A. Dal Corso  v.6.2.2
     Shape of augmentation charge: PSQ
     Using radial grid of 1187 points,  6 beta functions with:
                l(1) =   0
                l(2) =   0
                l(3) =   1
                l(4) =   1
                l(5) =   2
                l(6) =   2
     Q(r) pseudized with 0 coefficients

     PseudoPot. # 3 for S  read from file:
     ./../../../pseudos/S.pbe-n-kjpaw_psl.1.0.0.UPF
     MD5 check sum: fb45dfebcf3e72a4e1bd4a866ec2e262
     Pseudo is Projector augmented-wave + core cor, Zval =  6.0
     Generated using &quot;atomic&quot; code by A. Dal Corso  v.6.3
     Shape of augmentation charge: PSQ
     Using radial grid of 1151 points,  6 beta functions with:
                l(1) =   0
                l(2) =   0
                l(3) =   1
                l(4) =   1
                l(5) =   2
                l(6) =   2
     Q(r) pseudized with 0 coefficients

     atomic species   valence    mass     pseudopotential
     Mn1              15.00    54.93800     Mn( 1.00)
     Mn2              15.00    54.93800     Mn( 1.00)
     S                 6.00    32.06500     S ( 1.00)

      2 Sym. Ops. (no inversion) found

                                    s                        frac. trans.

      isym =  1     identity

 cryst.   s( 1) = (     1          0          0      )
                  (     0          1          0      )
                  (     0          0          1      )

 cart.    s( 1) = (  1.0000000  0.0000000  0.0000000 )
                  (  0.0000000  1.0000000  0.0000000 )
                  (  0.0000000  0.0000000  1.0000000 )

      isym =  2     inv. 180 deg rotation - cryst. axis [1,1,0]

 cryst.   s( 2) = (     1         -2          0      )
                  (     0         -1          0      )
                  (     0         -1          1      )

 cart.    s( 2) = (  0.5000001 -0.8660253 -0.0000000 )
                  ( -0.8660254 -0.5000001 -0.0000001 )
                  (  0.0000000  0.0000000  1.0000000 )

   Cartesian axes

     site n.     atom                  positions (alat units)
         1        Mn1    tau(   1) = (   0.7500000   0.4330127   0.3061862  )
         2        Mn2    tau(   2) = (   1.2500000   0.4330127   0.3061862  )
         3        S      tau(   3) = (   0.0000000   0.0000000   0.0000000  )
         4        S      tau(   4) = (   0.5000000   0.0000000   0.0000000  )

   Crystallographic axes

     site n.     atom                  positions (cryst. coord.)
         1        Mn1    tau(   1) = (  0.3750000  0.7500000  0.7500000  )
         2        Mn2    tau(   2) = (  0.8750000  0.7500000  0.7500000  )
         3        S      tau(   3) = (  0.0000000  0.0000000  0.0000000  )
         4        S      tau(   4) = (  0.5000000  0.0000000  0.0000000  )

     number of k points=    38  Gaussian smearing, width (Ry)=  0.0100
                       cart. coord. in units 2pi/alat
        k(    1) = (   0.0000000   0.0000000   0.0000000), wk =   0.0266667
        k(    2) = (   0.0000000   0.0000000   0.4898979), wk =   0.0533333
        k(    3) = (   0.0000000   0.0000000   0.9797958), wk =   0.0533333
        k(    4) = (   0.0000000   0.4618802  -0.1632993), wk =   0.0533333
        k(    5) = (   0.0000000   0.4618802   0.3265986), wk =   0.0533333
        k(    6) = (   0.0000000   0.4618802   0.8164966), wk =   0.0533333
        k(    7) = (   0.0000000   0.4618802  -1.1430951), wk =   0.0533333
        k(    8) = (   0.0000000   0.4618802  -0.6531972), wk =   0.0533333
        k(    9) = (   0.0000000   0.9237604  -0.3265986), wk =   0.0533333
        k(   10) = (   0.0000000   0.9237604   0.1632993), wk =   0.0533333
        k(   11) = (   0.0000000   0.9237604   0.6531973), wk =   0.0533333
        k(   12) = (   0.0000000   0.9237604  -1.3063944), wk =   0.0533333
        k(   13) = (   0.0000000   0.9237604  -0.8164965), wk =   0.0533333
        k(   14) = (   0.3333333  -0.1924501  -0.1360827), wk =   0.0533333
        k(   15) = (   0.3333333  -0.1924501   0.3538152), wk =   0.0533333
        k(   16) = (   0.3333333  -0.1924501   0.8437131), wk =   0.0533333
        k(   17) = (   0.3333333  -0.1924501  -1.1158786), wk =   0.0533333
        k(   18) = (   0.3333333  -0.1924501  -0.6259807), wk =   0.0533333
        k(   19) = (   0.3333333   0.2694301  -0.2993820), wk =   0.0533333
        k(   20) = (   0.3333333   0.2694301   0.1905159), wk =   0.0533333
        k(   21) = (   0.3333333   0.2694301   0.6804138), wk =   0.0533333
        k(   22) = (   0.3333333   0.2694301  -1.2791779), wk =   0.0533333
        k(   23) = (   0.3333333   0.2694301  -0.7892800), wk =   0.0533333
        k(   24) = (   0.3333333   0.7313103  -0.4626813), wk =   0.0533333
        k(   25) = (   0.3333333   0.7313103   0.0272166), wk =   0.0533333
        k(   26) = (   0.3333333   0.7313103   0.5171145), wk =   0.0533333
        k(   27) = (   0.3333333   0.7313103  -1.4424772), wk =   0.0533333
        k(   28) = (   0.3333333   0.7313103  -0.9525793), wk =   0.0533333
        k(   29) = (   0.3333333  -1.1162105   0.1905158), wk =   0.0533333
        k(   30) = (   0.3333333  -1.1162105   0.6804138), wk =   0.0533333
        k(   31) = (   0.3333333  -1.1162105   1.1703117), wk =   0.0533333
        k(   32) = (   0.3333333  -1.1162105  -0.7892800), wk =   0.0533333
        k(   33) = (   0.3333333  -1.1162105  -0.2993821), wk =   0.0533333
        k(   34) = (   0.3333333  -0.6543303   0.0272165), wk =   0.0533333
        k(   35) = (   0.3333333  -0.6543303   0.5171145), wk =   0.0533333
        k(   36) = (   0.3333333  -0.6543303   1.0070124), wk =   0.0533333
        k(   37) = (   0.3333333  -0.6543303  -0.9525793), wk =   0.0533333
        k(   38) = (   0.3333333  -0.6543303  -0.4626814), wk =   0.0533333

                       cryst. coord.
        k(    1) = (   0.0000000   0.0000000   0.0000000), wk =   0.0266667
        k(    2) = (   0.0000000   0.0000000   0.2000000), wk =   0.0533333
        k(    3) = (   0.0000000   0.0000000   0.4000000), wk =   0.0533333
        k(    4) = (   0.0000000   0.2000000   0.0000000), wk =   0.0533333
        k(    5) = (   0.0000000   0.2000000   0.2000000), wk =   0.0533333
        k(    6) = (   0.0000000   0.2000000   0.4000000), wk =   0.0533333
        k(    7) = (   0.0000000   0.2000000  -0.4000000), wk =   0.0533333
        k(    8) = (   0.0000000   0.2000000  -0.2000000), wk =   0.0533333
        k(    9) = (   0.0000000   0.4000000   0.0000000), wk =   0.0533333
        k(   10) = (   0.0000000   0.4000000   0.2000000), wk =   0.0533333
        k(   11) = (   0.0000000   0.4000000   0.4000000), wk =   0.0533333
        k(   12) = (   0.0000000   0.4000000  -0.4000000), wk =   0.0533333
        k(   13) = (   0.0000000   0.4000000  -0.2000000), wk =   0.0533333
        k(   14) = (   0.3333333  -0.0000000  -0.0000000), wk =   0.0533333
        k(   15) = (   0.3333333  -0.0000000   0.2000000), wk =   0.0533333
        k(   16) = (   0.3333333  -0.0000000   0.4000000), wk =   0.0533333
        k(   17) = (   0.3333333  -0.0000000  -0.4000000), wk =   0.0533333
        k(   18) = (   0.3333333  -0.0000000  -0.2000000), wk =   0.0533333
        k(   19) = (   0.3333333   0.2000000  -0.0000000), wk =   0.0533333
        k(   20) = (   0.3333333   0.2000000   0.2000000), wk =   0.0533333
        k(   21) = (   0.3333333   0.2000000   0.4000000), wk =   0.0533333
        k(   22) = (   0.3333333   0.2000000  -0.4000000), wk =   0.0533333
        k(   23) = (   0.3333333   0.2000000  -0.2000000), wk =   0.0533333
        k(   24) = (   0.3333333   0.4000000   0.0000000), wk =   0.0533333
        k(   25) = (   0.3333333   0.4000000   0.2000000), wk =   0.0533333
        k(   26) = (   0.3333333   0.4000000   0.4000000), wk =   0.0533333
        k(   27) = (   0.3333333   0.4000000  -0.4000000), wk =   0.0533333
        k(   28) = (   0.3333333   0.4000000  -0.2000000), wk =   0.0533333
        k(   29) = (   0.3333333  -0.4000000   0.0000000), wk =   0.0533333
        k(   30) = (   0.3333333  -0.4000000   0.2000000), wk =   0.0533333
        k(   31) = (   0.3333333  -0.4000000   0.4000000), wk =   0.0533333
        k(   32) = (   0.3333333  -0.4000000  -0.4000000), wk =   0.0533333
        k(   33) = (   0.3333333  -0.4000000  -0.2000000), wk =   0.0533333
        k(   34) = (   0.3333333  -0.2000000  -0.0000000), wk =   0.0533333
        k(   35) = (   0.3333333  -0.2000000   0.2000000), wk =   0.0533333
        k(   36) = (   0.3333333  -0.2000000   0.4000000), wk =   0.0533333
        k(   37) = (   0.3333333  -0.2000000  -0.4000000), wk =   0.0533333
        k(   38) = (   0.3333333  -0.2000000  -0.2000000), wk =   0.0533333

     Check: negative core charge=   -0.000237

     Initial potential from superposition of free atoms

     starting charge      41.9989, renormalised to      42.0000
     Starting wfcs are   28 randomized atomic wfcs
     Checking if some PAW data can be deallocated...

     Self-consistent Calculation

     iteration #  1     ecut=    30.00 Ry     beta= 0.70
     Davidson diagonalization with overlap

     ethr =  1.00E-02,  avg # of iterations =  2.0

     Threshold (ethr) on eigenvalues was too large:
     Diagonalizing with lowered threshold

     Davidson diagonalization with overlap

[...]

     total energy              =    -705.29477656 Ry
     estimated scf accuracy    <       0.13387151 Ry

[...]

     End of self-consistent calculation

          k = 0.0000 0.0000 0.0000 (  1617 PWs)   bands (ev):

   -72.2414 -72.2409 -40.9859 -40.9854 -40.9846 -40.9843 -40.9770 -40.9733
    -6.5670  -5.9175   1.9991   3.5073   3.5087   3.5117   3.6607   3.6613
     6.6766   6.6785   6.8548   6.8554   6.9386   8.2896   8.2908   9.2686
     9.2731

     occupation numbers
     1.0000   1.0000   1.0000   1.0000   1.0000   1.0000   1.0000   1.0000
     1.0000   1.0000   1.0000   1.0000   1.0000   1.0000   1.0000   1.0000
     1.0000   1.0000   0.9997   0.9997   0.9945   0.0000   0.0000   0.0000
     0.0000

[...]

     the Fermi energy is     7.1829 ev

!    total energy              =    -705.32185148 Ry
     total all-electron energy =     -6231.038659 Ry
     estimated scf accuracy    <          2.2E-11 Ry
     smearing contrib. (-TS)   =      -0.00475849 Ry
     internal energy E=F+TS    =    -705.31709298 Ry

     The total energy is F=E-TS. E is the sum of the following terms:
     one-electron contribution =    -305.11786843 Ry
     hartree contribution      =     169.04251255 Ry
     xc contribution           =     -65.34728418 Ry
     ewald contribution        =    -256.51068425 Ry
     one-center paw contrib.   =    -247.38376866 Ry
      -> PAW hartree energy AE =     177.15914255 Ry
      -> PAW hartree energy PS =    -178.07003158 Ry
      -> PAW xc energy AE      =    -104.23511351 Ry
      -> PAW xc energy PS      =      27.56983832 Ry
      -> total E_H with PAW    =     168.13162352 Ry
      -> total E_XC with PAW   =    -142.01255937 Ry

     convergence has been achieved in  20 iterations

     Forces acting on atoms (cartesian axes, Ry/au):

     atom    1 type  1   force =    -0.00235618    0.00136034    0.00142855
     atom    2 type  2   force =    -0.00235619    0.00136034    0.00142859
     atom    3 type  3   force =     0.00235617   -0.00136034   -0.00142855
     atom    4 type  3   force =     0.00235619   -0.00136035   -0.00142858
     The non-local contrib.  to forces
     atom    1 type  1   force =     0.00010951   -0.00006323    0.00005961
     atom    2 type  2   force =     0.00011043   -0.00006376    0.00005930
     atom    3 type  3   force =    -0.00054057    0.00031210    0.00037203
     atom    4 type  3   force =    -0.00054157    0.00031268    0.00037244
     The ionic contribution  to forces
     atom    1 type  1   force =    -0.00000135   -0.00000078   -0.00000055
     atom    2 type  2   force =    -0.00000135   -0.00000078   -0.00000055
     atom    3 type  3   force =     0.00000135    0.00000078    0.00000055
     atom    4 type  3   force =     0.00000135    0.00000078    0.00000055
     The local contribution  to forces
     atom    1 type  1   force =    -0.00216715    0.00125224    0.00120306
     atom    2 type  2   force =    -0.00216968    0.00125369    0.00120409
     atom    3 type  3   force =     0.00287430   -0.00166074   -0.00178687
     atom    4 type  3   force =     0.00287066   -0.00165864   -0.00178533
     The core correction contribution to forces
     atom    1 type  1   force =    -0.00030020    0.00017332    0.00016786
     atom    2 type  2   force =    -0.00030020    0.00017332    0.00016786
     atom    3 type  3   force =     0.00002012   -0.00001162   -0.00001366
     atom    4 type  3   force =     0.00002015   -0.00001163   -0.00001367
     The Hubbard contrib.    to forces
     atom    1 type  1   force =     0.00000000    0.00000000    0.00000000
     atom    2 type  2   force =     0.00000000    0.00000000    0.00000000
     atom    3 type  3   force =     0.00000000    0.00000000    0.00000000
     atom    4 type  3   force =     0.00000000    0.00000000    0.00000000
     The SCF correction term to forces
     atom    1 type  1   force =    -0.00000068    0.00000039    0.00000023
     atom    2 type  2   force =     0.00000091   -0.00000053   -0.00000045
     atom    3 type  3   force =    -0.00000237    0.00000137    0.00000106
     atom    4 type  3   force =     0.00000226   -0.00000131   -0.00000092

     Total force =     0.006146     Total SCF correction =     0.000004

     BFGS Geometry Optimization
     Energy error            =      0.0E+00 Ry
     Gradient error          =      2.4E-03 Ry/Bohr

     number of scf cycles    =   1
     number of bfgs steps    =   0

     energy             new  =    -705.3218514765 Ry

     new trust radius        =       0.0030729499 bohr
     new conv_thr            =            1.0E-10 Ry

ATOMIC_POSITIONS (crystal)
Mn1              0.3747480979        0.7501335783        0.7502366476
Mn2              0.8747480959        0.7501335770        0.7502366542
S                0.0002519018       -0.0001335778       -0.0002366480
S                0.5002519044       -0.0001335774       -0.0002366539

     Writing config-only to output data dir ./temp/mns.save/ :
     XML data file
     NEW-OLD atomic charge density approx. for the potential

[...]

     Total force =     0.004955     Total SCF correction =     0.000006
     Energy error            =      3.4E-05 Ry
     Gradient error          =      1.9E-03 Ry/Bohr

[...]

     energy             old  =    -705.3218514765 Ry
     energy             new  =    -705.3218855979 Ry

     CASE: energy            _new < energy            _old

     WARNING: bfgs curvature condition failed, Theta= 0.992
     new trust radius        =       0.0033802449 bohr
     new conv_thr            =            3.4E-12 Ry

[...]

     number of scf cycles    =   4
     number of bfgs steps    =   3

     energy             old  =    -705.3219146041 Ry
     energy             new  =    -705.3219411204 Ry

     CASE: energy            _new < energy            _old

     new trust radius        =       0.0039894846 bohr
     new conv_thr            =            2.7E-12 Ry

ATOMIC_POSITIONS (crystal)
Mn1              0.3737302155        0.7506614567        0.7512166556
Mn2              0.8737305273        0.7506612124        0.7512165205
S                0.0012697159       -0.0006613968       -0.0012166380
S                0.5012695414       -0.0006612723       -0.0012165380

     Writing config-only to output data dir ./temp/mns.save/ :
     XML data file
     NEW-OLD atomic charge density approx. for the potential

     Check: negative core charge=   -0.000237

     Self-consistent Calculation

[...]

     Threshold (ethr) on eigenvalues was too large:
     Diagonalizing with lowered threshold

     Davidson diagonalization with overlap

[...]

     total energy              =    -705.32194739 Ry
     estimated scf accuracy    <          5.7E-11 Ry

     iteration # 11     ecut=    30.00 Ry     beta= 0.70
     Davidson diagonalization with overlap

     ethr =  1.36E-13,  avg # of iterations =  2.6

     End of self-consistent calculation

[...]

          k = 0.3333-0.6543-0.4627 (  1599 PWs)   bands (ev):

   -72.2416 -72.2416 -40.9852 -40.9835 -40.9831 -40.9829 -40.9808 -40.9806
    -6.2037  -6.0223   2.4192   2.6784   3.4795   3.5304   3.6511   3.6575
     6.4064   6.5916   6.8232   6.9222   7.4533   7.8414   8.0355   8.2211
     8.2917

     occupation numbers
     1.0000   1.0000   1.0000   1.0000   1.0000   1.0000   1.0000   1.0000
     1.0000   1.0000   1.0000   1.0000   1.0000   1.0000   1.0000   1.0000
     1.0000   1.0000   0.9999   0.9968   0.0026   0.0000   0.0000   0.0000
     0.0000

     the Fermi energy is     7.1841 ev

!    total energy              =    -705.32194739 Ry
     total all-electron energy =     -6231.038755 Ry
     estimated scf accuracy    <          1.7E-12 Ry
     smearing contrib. (-TS)   =      -0.00466793 Ry
     internal energy E=F+TS    =    -705.31727946 Ry

     The total energy is F=E-TS. E is the sum of the following terms:
     one-electron contribution =    -305.12160704 Ry
     hartree contribution      =     169.04357242 Ry
     xc contribution           =     -65.34738554 Ry
     ewald contribution        =    -256.50809566 Ry
     one-center paw contrib.   =    -247.38376364 Ry
      -> PAW hartree energy AE =     177.15965253 Ry
      -> PAW hartree energy PS =    -178.07051655 Ry
      -> PAW xc energy AE      =    -104.23524113 Ry
      -> PAW xc energy PS      =      27.56994573 Ry
      -> total E_H with PAW    =     168.13270840 Ry
      -> total E_XC with PAW   =    -142.01268094 Ry

     convergence has been achieved in  11 iterations

     Forces acting on atoms (cartesian axes, Ry/au):

     atom    1 type  1   force =     0.00002856   -0.00001649    0.00002979
     atom    2 type  2   force =     0.00002875   -0.00001660    0.00002973
     atom    3 type  3   force =    -0.00002864    0.00001654   -0.00002976
     atom    4 type  3   force =    -0.00002867    0.00001655   -0.00002976
     The non-local contrib.  to forces
     atom    1 type  1   force =    -0.00007255    0.00004189    0.00023074
     atom    2 type  2   force =    -0.00007151    0.00004129    0.00023035
     atom    3 type  3   force =    -0.00364858    0.00210651    0.00225256
     atom    4 type  3   force =    -0.00364861    0.00210652    0.00225254
     The ionic contribution  to forces
     atom    1 type  1   force =     0.06463306   -0.03731746   -0.03919396
     atom    2 type  2   force =     0.06455372   -0.03727166   -0.03916283
     atom    3 type  3   force =    -0.06461151    0.03730502    0.03918671
     atom    4 type  3   force =    -0.06457527    0.03728410    0.03917008
     The local contribution  to forces
     atom    1 type  1   force =    -0.06453827    0.03726233    0.03901130
     atom    2 type  2   force =    -0.06446036    0.03721735    0.03898073
     atom    3 type  3   force =     0.06805863   -0.03929493   -0.04136539
     atom    4 type  3   force =     0.06802086   -0.03927313   -0.04134809
     The core correction contribution to forces
     atom    1 type  1   force =     0.00001046   -0.00000604   -0.00002318
     atom    2 type  2   force =     0.00001017   -0.00000587   -0.00002311
     atom    3 type  3   force =     0.00017782   -0.00010266   -0.00010895
     atom    4 type  3   force =     0.00017780   -0.00010265   -0.00010894
     The Hubbard contrib.    to forces
     atom    1 type  1   force =     0.00000000    0.00000000    0.00000000
     atom    2 type  2   force =     0.00000000    0.00000000    0.00000000
     atom    3 type  3   force =     0.00000000    0.00000000    0.00000000
     atom    4 type  3   force =     0.00000000    0.00000000    0.00000000
     The SCF correction term to forces
     atom    1 type  1   force =    -0.00000032    0.00000018   -0.00000003
     atom    2 type  2   force =     0.00000056   -0.00000032   -0.00000034
     atom    3 type  3   force =    -0.00000087    0.00000050    0.00000038
     atom    4 type  3   force =     0.00000068   -0.00000039   -0.00000026

     Total force =     0.000089     Total SCF correction =     0.000002
     Energy error            =      6.3E-06 Ry
     Gradient error          =      3.0E-05 Ry/Bohr

     bfgs converged in   5 scf cycles and   4 bfgs steps
     (criteria: energy <  1.0E-05 Ry, force <  1.0E-04 Ry/Bohr)

     End of BFGS Geometry Optimization

     Final energy             =    -705.3219473913 Ry

     File ./temp/mns.bfgs deleted, as requested
Begin final coordinates

ATOMIC_POSITIONS (crystal)
Mn1              0.3737302155        0.7506614567        0.7512166556
Mn2              0.8737305273        0.7506612124        0.7512165205
S                0.0012697159       -0.0006613968       -0.0012166380
S                0.5012695414       -0.0006612723       -0.0012165380
End final coordinates

     Writing all to output data dir ./temp/mns.save/ :
     XML data file, charge density, pseudopotentials, collected wavefunctions

     General routines

     Parallel routines

     PAW routines

   This run was terminated on:  11:12:42  31Jan2025

   JOB DONE.