     Program PWSCF v.7.3.1 starts on 23Dec2024 at  7: 9:37

     Reading input from vc_relax_NM.in

     Current dimensions of program PWSCF are:
     Max number of different atomic species (ntypx) = 10
     Max number of k-points (npk) =  40000
     Max angular momentum in pseudopotentials (lmaxx) =  4
     file Fe.pbesol-spn-kjpaw_psl.1.0.0.UPF: wavefunction(s)  3P 3D renormalized
     file Fe.pbesol-spn-kjpaw_psl.1.0.0.UPF: wavefunction(s)  3P 3D renormalized
     Found identity + ( -0.5000 -0.5000 -0.5000) symmetry
     This is a supercell, fractional translations are disabled

     R & G space division:  proc/nbgrp/npool/nimage =       2
     Subspace diagonalization in iterative solution of the eigenvalue problem:
     a serial algorithm will be used

     Using Slab Decomposition

     bravais-lattice index     =            1
     lattice parameter (alat)  =       5.4104  a.u.
     unit-cell volume          =     158.3714 (a.u.)^3
     number of atoms/cell      =            2
     number of atomic types    =            2
     number of electrons       =        32.00
     number of Kohn-Sham states=           20
     kinetic-energy cutoff     =      50.0000  Ry
     charge density cutoff     =     400.0000  Ry
     scf convergence threshold =      1.0E-08
     mixing beta               =       0.7000
     number of iterations used =            8  plain     mixing
     energy convergence thresh.=      1.0E-05
     force convergence thresh. =      1.0E-04
     press convergence thresh. =      5.0E-01
     Exchange-correlation= SLA  PW   PSX  PSC
                           (   1   4  10   8   0   0   0)
     nstep                     =           50

     celldm(1)=   5.410353  celldm(2)=   0.000000  celldm(3)=   0.000000
     celldm(4)=   0.000000  celldm(5)=   0.000000  celldm(6)=   0.000000

     crystal axes: (cart. coord. in units of alat)
               a(1) = (   1.000000   0.000000   0.000000 )
               a(2) = (   0.000000   1.000000   0.000000 )
               a(3) = (   0.000000   0.000000   1.000000 )

     reciprocal axes: (cart. coord. in units 2 pi/alat)
               b(1) = (  1.000000  0.000000  0.000000 )
               b(2) = (  0.000000  1.000000  0.000000 )
               b(3) = (  0.000000  0.000000  1.000000 )

     PseudoPot. # 1 for Fe read from file:
     ./../../pseudos/Fe.pbesol-spn-kjpaw_psl.1.0.0.UPF
     MD5 check sum: e30d5f36a6f0cb983ee41abee56170da
     Pseudo is Projector augmented-wave + core cor, Zval = 16.0
     Generated using &quot;atomic&quot; code by A. Dal Corso  v.6.3
     Shape of augmentation charge: PSQ
     Using radial grid of 1191 points,  6 beta functions with:
                l(1) =   0
                l(2) =   0
                l(3) =   1
                l(4) =   1
                l(5) =   2
                l(6) =   2
     Q(r) pseudized with 0 coefficients

[...]

     atomic species   valence    mass     pseudopotential
     Fe1              16.00    55.84500     Fe( 1.00)
     Fe2              16.00    55.84500     Fe( 1.00)

     48 Sym. Ops., with inversion, found

   Cartesian axes

     site n.     atom                  positions (alat units)
         1        Fe1    tau(   1) = (   0.0000000   0.0000000   0.0000000  )
         2        Fe1    tau(   2) = (   0.5000000   0.5000000   0.5000000  )

     number of k points=    56  Gaussian smearing, width (Ry)=  0.0200
                       cart. coord. in units 2pi/alat
        k(    1) = (   0.0000000   0.0000000   0.0000000), wk =   0.0015026
        k(    2) = (   0.0000000   0.0000000   0.0909091), wk =   0.0090158
        k(    3) = (   0.0000000   0.0000000   0.1818182), wk =   0.0090158
        k(    4) = (   0.0000000   0.0000000   0.2727273), wk =   0.0090158
        k(    5) = (   0.0000000   0.0000000   0.3636364), wk =   0.0090158
        k(    6) = (   0.0000000   0.0000000   0.4545455), wk =   0.0090158
        k(    7) = (   0.0000000   0.0909091   0.0909091), wk =   0.0180316
        k(    8) = (   0.0000000   0.0909091   0.1818182), wk =   0.0360631
        k(    9) = (   0.0000000   0.0909091   0.2727273), wk =   0.0360631
        k(   10) = (   0.0000000   0.0909091   0.3636364), wk =   0.0360631
        k(   11) = (   0.0000000   0.0909091   0.4545455), wk =   0.0360631
        k(   12) = (   0.0000000   0.1818182   0.1818182), wk =   0.0180316
        k(   13) = (   0.0000000   0.1818182   0.2727273), wk =   0.0360631
        k(   14) = (   0.0000000   0.1818182   0.3636364), wk =   0.0360631
        k(   15) = (   0.0000000   0.1818182   0.4545455), wk =   0.0360631
        k(   16) = (   0.0000000   0.2727273   0.2727273), wk =   0.0180316
        k(   17) = (   0.0000000   0.2727273   0.3636364), wk =   0.0360631
        k(   18) = (   0.0000000   0.2727273   0.4545455), wk =   0.0360631
        k(   19) = (   0.0000000   0.3636364   0.3636364), wk =   0.0180316
        k(   20) = (   0.0000000   0.3636364   0.4545455), wk =   0.0360631
        k(   21) = (   0.0000000   0.4545455   0.4545455), wk =   0.0180316
        k(   22) = (   0.0909091   0.0909091   0.0909091), wk =   0.0120210
        k(   23) = (   0.0909091   0.0909091   0.1818182), wk =   0.0360631
        k(   24) = (   0.0909091   0.0909091   0.2727273), wk =   0.0360631
        k(   25) = (   0.0909091   0.0909091   0.3636364), wk =   0.0360631
        k(   26) = (   0.0909091   0.0909091   0.4545455), wk =   0.0360631
        k(   27) = (   0.0909091   0.1818182   0.1818182), wk =   0.0360631
        k(   28) = (   0.0909091   0.1818182   0.2727273), wk =   0.0721262
        k(   29) = (   0.0909091   0.1818182   0.3636364), wk =   0.0721262
        k(   30) = (   0.0909091   0.1818182   0.4545455), wk =   0.0721262
        k(   31) = (   0.0909091   0.2727273   0.2727273), wk =   0.0360631
        k(   32) = (   0.0909091   0.2727273   0.3636364), wk =   0.0721262
        k(   33) = (   0.0909091   0.2727273   0.4545455), wk =   0.0721262
        k(   34) = (   0.0909091   0.3636364   0.3636364), wk =   0.0360631
        k(   35) = (   0.0909091   0.3636364   0.4545455), wk =   0.0721262
        k(   36) = (   0.0909091   0.4545455   0.4545455), wk =   0.0360631
        k(   37) = (   0.1818182   0.1818182   0.1818182), wk =   0.0120210
        k(   38) = (   0.1818182   0.1818182   0.2727273), wk =   0.0360631
        k(   39) = (   0.1818182   0.1818182   0.3636364), wk =   0.0360631
        k(   40) = (   0.1818182   0.1818182   0.4545455), wk =   0.0360631
        k(   41) = (   0.1818182   0.2727273   0.2727273), wk =   0.0360631
        k(   42) = (   0.1818182   0.2727273   0.3636364), wk =   0.0721262
        k(   43) = (   0.1818182   0.2727273   0.4545455), wk =   0.0721262
        k(   44) = (   0.1818182   0.3636364   0.3636364), wk =   0.0360631
        k(   45) = (   0.1818182   0.3636364   0.4545455), wk =   0.0721262
        k(   46) = (   0.1818182   0.4545455   0.4545455), wk =   0.0360631
        k(   47) = (   0.2727273   0.2727273   0.2727273), wk =   0.0120210
        k(   48) = (   0.2727273   0.2727273   0.3636364), wk =   0.0360631
        k(   49) = (   0.2727273   0.2727273   0.4545455), wk =   0.0360631
        k(   50) = (   0.2727273   0.3636364   0.3636364), wk =   0.0360631
        k(   51) = (   0.2727273   0.3636364   0.4545455), wk =   0.0721262
        k(   52) = (   0.2727273   0.4545455   0.4545455), wk =   0.0360631
        k(   53) = (   0.3636364   0.3636364   0.3636364), wk =   0.0120210
        k(   54) = (   0.3636364   0.3636364   0.4545455), wk =   0.0360631
        k(   55) = (   0.3636364   0.4545455   0.4545455), wk =   0.0360631
        k(   56) = (   0.4545455   0.4545455   0.4545455), wk =   0.0120210

     Check: negative core charge=   -0.000006

     Initial potential from superposition of free atoms

     starting charge      31.9992, renormalised to      32.0000
     Starting wfcs are   20 randomized atomic wfcs
     Checking if some PAW data can be deallocated...

     Self-consistent Calculation

     iteration #  1     ecut=    50.00 Ry     beta= 0.70
     Davidson diagonalization with overlap
     ethr =  1.00E-02,  avg # of iterations =  3.2

     Threshold (ethr) on eigenvalues was too large:
     Diagonalizing with lowered threshold

     Davidson diagonalization with overlap
     ethr =  1.96E-04,  avg # of iterations =  2.8

     total energy              =    -653.66562322 Ry
     estimated scf accuracy    <       0.08393443 Ry

[...]

     End of self-consistent calculation

          k = 0.0000 0.0000 0.0000 (   949 PWs)   bands (ev):

   -69.3298 -69.2040 -35.5656 -35.5656 -35.5656 -35.2825 -35.2825 -35.2825
     9.1172  13.4914  13.4914  15.9809  15.9809  15.9809  17.4915  17.4915
    18.4069  18.4069  18.4069  27.0931

[...]

     the Fermi energy is    17.5030 ev

!    total energy              =    -653.71254062 Ry
     total all-electron energy =     -5086.363959 Ry
     estimated scf accuracy    <          1.2E-09 Ry
     smearing contrib. (-TS)   =      -0.02070044 Ry
     internal energy E=F+TS    =    -653.69184018 Ry

     The total energy is F=E-TS. E is the sum of the following terms:
     one-electron contribution =    -224.70604000 Ry
     hartree contribution      =     131.37795178 Ry
     xc contribution           =     -54.52825460 Ry
     ewald contribution        =    -344.39297617 Ry
     one-center paw contrib.   =    -161.44252119 Ry

     convergence has been achieved in  12 iterations

     Forces acting on atoms (cartesian axes, Ry/au):

     atom    1 type  1   force =     0.00000000    0.00000000    0.00000000
     atom    2 type  1   force =     0.00000000    0.00000000    0.00000000

     Total force =     0.000000     Total SCF correction =     0.000000

     Computing stress (Cartesian axis) and pressure

          total   stress  (Ry/bohr**3)                   (kbar)     P=     -540.00
  -0.00367084   0.00000000   0.00000000         -540.00        0.00        0.00
   0.00000000  -0.00367084   0.00000000            0.00     -540.00        0.00
   0.00000000   0.00000000  -0.00367084            0.00        0.00     -540.00

     BFGS Geometry Optimization
     Energy error            =      0.0E+00 Ry
     Gradient error          =      0.0E+00 Ry/Bohr
     Cell gradient error     =      5.4E+02 kbar

     number of scf cycles    =   1
     number of bfgs steps    =   0

     enthalpy           new  =    -653.7125406242 Ry

     new trust radius        =       0.2309799088 bohr
ibrav =      1
 celldm(1) =      4.91383896
Input lattice vectors:
     0.90822892     0.00000000     0.00000000
     0.00000000     0.90822892     0.00000000
     0.00000000     0.00000000     0.90822892
New lattice vectors in INITIAL alat:
     0.90822892     0.00000000     0.00000000
     0.00000000     0.90822892     0.00000000
     0.00000000     0.00000000     0.90822892
New lattice vectors in NEW alat (for information only):
     1.00000000     0.00000000     0.00000000
     0.00000000     1.00000000     0.00000000
     0.00000000     0.00000000     1.00000000
Discrepancy in bohr =     0.000000    0.000000    0.000000
     new conv_thr            =       0.0000000100 Ry

     new unit-cell volume =    118.64864 a.u.^3 (    17.58191 Ang^3 )
     density =     10.54866 g/cm^3

CELL_PARAMETERS (alat=  5.41035287)
   0.908228924   0.000000000   0.000000000
   0.000000000   0.908228924   0.000000000
   0.000000000   0.000000000   0.908228924

ATOMIC_POSITIONS (crystal)
Fe1              0.0000000000        0.0000000000        0.0000000000
Fe1              0.5000000000        0.5000000000        0.5000000000

     Writing config-only to output data dir ./temp/fe-afm.save/ :
     XML data file
     NEW-OLD atomic charge density approx. for the potential

[...]

     Energy error            =      1.4E-02 Ry
     Gradient error          =      0.0E+00 Ry/Bohr
     Cell gradient error     =      5.7E+02 kbar

[...]

     enthalpy           old  =    -653.7125406242 Ry
     enthalpy           new  =    -653.7269738575 Ry

     CASE: enthalpy          _new < enthalpy          _old

[...]

     Energy error            =      9.1E-05 Ry
     Gradient error          =      0.0E+00 Ry/Bohr
     Cell gradient error     =      3.2E+00 kbar

     number of scf cycles    =   4
     number of bfgs steps    =   3

     enthalpy           old  =    -653.7563736550 Ry
     enthalpy           new  =    -653.7564642541 Ry

     CASE: enthalpy          _new < enthalpy          _old

     new trust radius        =       0.0006867403 bohr
ibrav =      1
 celldm(1) =      5.13285540
Input lattice vectors:
     0.94870991     0.00000000     0.00000000
     0.00000000     0.94870991     0.00000000
     0.00000000     0.00000000     0.94870991
New lattice vectors in INITIAL alat:
     0.94870991     0.00000000     0.00000000
     0.00000000     0.94870991     0.00000000
     0.00000000     0.00000000     0.94870991
New lattice vectors in NEW alat (for information only):
     1.00000000     0.00000000     0.00000000
     0.00000000     1.00000000     0.00000000
     0.00000000     0.00000000     1.00000000
Discrepancy in bohr =     0.000000    0.000000    0.000000
     new conv_thr            =            1.0E-10 Ry

     new unit-cell volume =    135.23126 a.u.^3 (    20.03921 Ang^3 )
     density =      9.25514 g/cm^3

[...]

ATOMIC_POSITIONS (crystal)
Fe1              0.0000000000        0.0000000000        0.0000000000
Fe1              0.5000000000        0.5000000000        0.5000000000

     Writing config-only to output data dir ./temp/fe-afm.save/ :
     XML data file
     NEW-OLD atomic charge density approx. for the potential

[...]

     Threshold (ethr) on eigenvalues was too large:
     Diagonalizing with lowered threshold

     Davidson diagonalization with overlap
     ethr =  5.78E-10,  avg # of iterations =  3.1

[...]

     Energy error            =      1.2E-06 Ry
     Gradient error          =      0.0E+00 Ry/Bohr
     Cell gradient error     =      2.0E-01 kbar
ibrav =      1
 celldm(1) =      5.13285540
Input lattice vectors:
     0.94870991     0.00000000     0.00000000
     0.00000000     0.94870991     0.00000000
     0.00000000     0.00000000     0.94870991
New lattice vectors in INITIAL alat:
     0.94870991     0.00000000     0.00000000
     0.00000000     0.94870991     0.00000000
     0.00000000     0.00000000     0.94870991
New lattice vectors in NEW alat (for information only):
     1.00000000     0.00000000     0.00000000
     0.00000000     1.00000000     0.00000000
     0.00000000     0.00000000     1.00000000
Discrepancy in bohr =     0.000000    0.000000    0.000000

     bfgs converged in   5 scf cycles and   4 bfgs steps
     (criteria: energy <  1.0E-05 Ry, force <  1.0E-04 Ry/Bohr, cell <  5.0E-01 kbar)

     End of BFGS Geometry Optimization

     Final enthalpy           =    -653.7564654342 Ry

     File ./temp/fe-afm.bfgs deleted, as requested
Begin final coordinates
     new unit-cell volume =    135.23126 a.u.^3 (    20.03921 Ang^3 )
     density =      9.25514 g/cm^3

CELL_PARAMETERS (alat=  5.41035287)
   0.948709913   0.000000000   0.000000000
   0.000000000   0.948709913   0.000000000
   0.000000000   0.000000000   0.948709913

ATOMIC_POSITIONS (crystal)
Fe1              0.0000000000        0.0000000000        0.0000000000
Fe1              0.5000000000        0.5000000000        0.5000000000
End final coordinates

     Writing config-only to output data dir ./temp/fe-afm.save/ :
     XML data file

     Final scf calculation at the relaxed structure.
     The G-vectors are recalculated for the final unit cell
     Results may differ from those at the preceding step.

     Using Slab Decomposition

     bravais-lattice index     =            1
     lattice parameter (alat)  =       5.4104  a.u.
     unit-cell volume          =     135.2313 (a.u.)^3
     number of atoms/cell      =            2
     number of atomic types    =            2
     number of electrons       =        32.00
     number of Kohn-Sham states=           20
     kinetic-energy cutoff     =      50.0000  Ry
     charge density cutoff     =     400.0000  Ry
     scf convergence threshold =      1.0E-10
     mixing beta               =       0.7000
     number of iterations used =            8  plain     mixing
     press convergence thresh. =      5.0E-01
     Exchange-correlation= SLA  PW   PSX  PSC
                           (   1   4  10   8   0   0   0)

     celldm(1)=   5.410353  celldm(2)=   0.000000  celldm(3)=   0.000000
     celldm(4)=   0.000000  celldm(5)=   0.000000  celldm(6)=   0.000000

     crystal axes: (cart. coord. in units of alat)
               a(1) = (   0.948710   0.000000   0.000000 )
               a(2) = (   0.000000   0.948710   0.000000 )
               a(3) = (   0.000000   0.000000   0.948710 )

     reciprocal axes: (cart. coord. in units 2 pi/alat)
               b(1) = (  1.054063  0.000000  0.000000 )
               b(2) = (  0.000000  1.054063  0.000000 )
               b(3) = (  0.000000  0.000000  1.054063 )

[...]

     PseudoPot. # 2 for Fe read from file:
     ./../../pseudos/Fe.pbesol-spn-kjpaw_psl.1.0.0.UPF
     MD5 check sum: e30d5f36a6f0cb983ee41abee56170da
     Pseudo is Projector augmented-wave + core cor, Zval = 16.0
     Generated using &quot;atomic&quot; code by A. Dal Corso  v.6.3
     Shape of augmentation charge: PSQ
     Using radial grid of 1191 points,  6 beta functions with:
                l(1) =   0
                l(2) =   0
                l(3) =   1
                l(4) =   1
                l(5) =   2
                l(6) =   2
     Q(r) pseudized with 0 coefficients

     atomic species   valence    mass     pseudopotential
     Fe1              16.00    55.84500     Fe( 1.00)
     Fe2              16.00    55.84500     Fe( 1.00)

     48 Sym. Ops., with inversion, found

   Cartesian axes

     site n.     atom                  positions (alat units)
         1        Fe1    tau(   1) = (   0.0000000   0.0000000   0.0000000  )
         2        Fe1    tau(   2) = (   0.4743550   0.4743550   0.4743550  )

     number of k points=    56  Gaussian smearing, width (Ry)=  0.0200
                       cart. coord. in units 2pi/alat
        k(    1) = (   0.0000000   0.0000000   0.0000000), wk =   0.0015026
        k(    2) = (   0.0000000   0.0000000   0.0958239), wk =   0.0090158
        k(    3) = (   0.0000000   0.0000000   0.1916478), wk =   0.0090158
        k(    4) = (   0.0000000   0.0000000   0.2874717), wk =   0.0090158
        k(    5) = (   0.0000000   0.0000000   0.3832956), wk =   0.0090158
        k(    6) = (   0.0000000   0.0000000   0.4791195), wk =   0.0090158
        k(    7) = (   0.0000000   0.0958239   0.0958239), wk =   0.0180316
        k(    8) = (   0.0000000   0.0958239   0.1916478), wk =   0.0360631
        k(    9) = (   0.0000000   0.0958239   0.2874717), wk =   0.0360631
        k(   10) = (   0.0000000   0.0958239   0.3832956), wk =   0.0360631
        k(   11) = (   0.0000000   0.0958239   0.4791195), wk =   0.0360631
        k(   12) = (   0.0000000   0.1916478   0.1916478), wk =   0.0180316
        k(   13) = (   0.0000000   0.1916478   0.2874717), wk =   0.0360631
        k(   14) = (   0.0000000   0.1916478   0.3832956), wk =   0.0360631
        k(   15) = (   0.0000000   0.1916478   0.4791195), wk =   0.0360631
        k(   16) = (   0.0000000   0.2874717   0.2874717), wk =   0.0180316
        k(   17) = (   0.0000000   0.2874717   0.3832956), wk =   0.0360631
        k(   18) = (   0.0000000   0.2874717   0.4791195), wk =   0.0360631
        k(   19) = (   0.0000000   0.3832956   0.3832956), wk =   0.0180316
        k(   20) = (   0.0000000   0.3832956   0.4791195), wk =   0.0360631
        k(   21) = (   0.0000000   0.4791195   0.4791195), wk =   0.0180316
        k(   22) = (   0.0958239   0.0958239   0.0958239), wk =   0.0120210
        k(   23) = (   0.0958239   0.0958239   0.1916478), wk =   0.0360631
        k(   24) = (   0.0958239   0.0958239   0.2874717), wk =   0.0360631
        k(   25) = (   0.0958239   0.0958239   0.3832956), wk =   0.0360631
        k(   26) = (   0.0958239   0.0958239   0.4791195), wk =   0.0360631
        k(   27) = (   0.0958239   0.1916478   0.1916478), wk =   0.0360631
        k(   28) = (   0.0958239   0.1916478   0.2874717), wk =   0.0721262
        k(   29) = (   0.0958239   0.1916478   0.3832956), wk =   0.0721262
        k(   30) = (   0.0958239   0.1916478   0.4791195), wk =   0.0721262
        k(   31) = (   0.0958239   0.2874717   0.2874717), wk =   0.0360631
        k(   32) = (   0.0958239   0.2874717   0.3832956), wk =   0.0721262
        k(   33) = (   0.0958239   0.2874717   0.4791195), wk =   0.0721262
        k(   34) = (   0.0958239   0.3832956   0.3832956), wk =   0.0360631
        k(   35) = (   0.0958239   0.3832956   0.4791195), wk =   0.0721262
        k(   36) = (   0.0958239   0.4791195   0.4791195), wk =   0.0360631
        k(   37) = (   0.1916478   0.1916478   0.1916478), wk =   0.0120210
        k(   38) = (   0.1916478   0.1916478   0.2874717), wk =   0.0360631
        k(   39) = (   0.1916478   0.1916478   0.3832956), wk =   0.0360631
        k(   40) = (   0.1916478   0.1916478   0.4791195), wk =   0.0360631
        k(   41) = (   0.1916478   0.2874717   0.2874717), wk =   0.0360631
        k(   42) = (   0.1916478   0.2874717   0.3832956), wk =   0.0721262
        k(   43) = (   0.1916478   0.2874717   0.4791195), wk =   0.0721262
        k(   44) = (   0.1916478   0.3832956   0.3832956), wk =   0.0360631
        k(   45) = (   0.1916478   0.3832956   0.4791195), wk =   0.0721262
        k(   46) = (   0.1916478   0.4791195   0.4791195), wk =   0.0360631
        k(   47) = (   0.2874717   0.2874717   0.2874717), wk =   0.0120210
        k(   48) = (   0.2874717   0.2874717   0.3832956), wk =   0.0360631
        k(   49) = (   0.2874717   0.2874717   0.4791195), wk =   0.0360631
        k(   50) = (   0.2874717   0.3832956   0.3832956), wk =   0.0360631
        k(   51) = (   0.2874717   0.3832956   0.4791195), wk =   0.0721262
        k(   52) = (   0.2874717   0.4791195   0.4791195), wk =   0.0360631
        k(   53) = (   0.3832956   0.3832956   0.3832956), wk =   0.0120210
        k(   54) = (   0.3832956   0.3832956   0.4791195), wk =   0.0360631
        k(   55) = (   0.3832956   0.4791195   0.4791195), wk =   0.0360631
        k(   56) = (   0.4791195   0.4791195   0.4791195), wk =   0.0120210

     Check: negative core charge=   -0.000007

     Initial potential from superposition of free atoms

     starting charge      31.9992, renormalised to      32.0000
     Starting wfcs are   20 randomized atomic wfcs
     Checking if some PAW data can be deallocated...

     Self-consistent Calculation

[...]

     total energy              =    -653.73712103 Ry
     estimated scf accuracy    <          4.1E-10 Ry

     iteration # 12     ecut=    50.00 Ry     beta= 0.70
     Davidson diagonalization with overlap
     ethr =  1.27E-12,  avg # of iterations =  1.2

     End of self-consistent calculation

[...]

          k = 0.4791 0.4791 0.4791 (   819 PWs)   bands (ev):

   -65.6748 -65.6741 -32.0346 -31.9907 -31.9907 -31.8978 -31.8978 -31.8505
    17.7267  17.8862  17.8862  18.1277  18.1277  18.1787  21.5087  21.5087
    21.5184  21.5184  29.0161  30.2122

     the Fermi energy is    21.2478 ev

!    total energy              =    -653.73712103 Ry
     total all-electron energy =     -5086.388540 Ry
     estimated scf accuracy    <          4.6E-12 Ry
     smearing contrib. (-TS)   =      -0.01638388 Ry
     internal energy E=F+TS    =    -653.72073715 Ry

     The total energy is F=E-TS. E is the sum of the following terms:
     one-electron contribution =    -195.35669889 Ry
     hartree contribution      =     120.89530015 Ry
     xc contribution           =     -54.80493587 Ry
     ewald contribution        =    -363.01188731 Ry
     one-center paw contrib.   =    -161.44251524 Ry

     convergence has been achieved in  12 iterations

     Forces acting on atoms (cartesian axes, Ry/au):

     atom    1 type  1   force =     0.00000000    0.00000000    0.00000000
     atom    2 type  1   force =     0.00000000    0.00000000    0.00000000

     Total force =     0.000000     Total SCF correction =     0.000000

     Computing stress (Cartesian axis) and pressure

          total   stress  (Ry/bohr**3)                   (kbar)     P=     -233.95
  -0.00159038   0.00000000   0.00000000         -233.95        0.00        0.00
   0.00000000  -0.00159038   0.00000000            0.00     -233.95        0.00
   0.00000000   0.00000000  -0.00159038            0.00        0.00     -233.95

     Writing all to output data dir ./temp/fe-afm.save/ :
     XML data file, charge density, pseudopotentials, collected wavefunctions

     General routines

     Parallel routines

   This run was terminated on:   7:17: 8  23Dec2024

   JOB DONE.