     Program PWSCF v.7.3.1 starts on 25Dec2024 at 22:30:40

     Reading input from vc_relax.in

     Current dimensions of program PWSCF are:
     Max number of different atomic species (ntypx) = 10
     Max number of k-points (npk) =  40000
     Max angular momentum in pseudopotentials (lmaxx) =  4
     file C.pbesol-n-kjpaw_psl.1.0.0.UPF: wavefunction(s)  2S 2P renormalized

     R & G space division:  proc/nbgrp/npool/nimage =       4
     Subspace diagonalization in iterative solution of the eigenvalue problem:
     a serial algorithm will be used

     Using Slab Decomposition

     bravais-lattice index     =            4
     lattice parameter (alat)  =       4.6625  a.u.
     unit-cell volume          =     277.6091 (a.u.)^3
     number of atoms/cell      =            4
     number of atomic types    =            1
     number of electrons       =        16.00
     number of Kohn-Sham states=           12
     kinetic-energy cutoff     =      40.0000  Ry
     charge density cutoff     =     320.0000  Ry
     scf convergence threshold =      1.0E-07
     mixing beta               =       0.7000
     number of iterations used =            8  plain     mixing
     energy convergence thresh.=      1.0E-05
     force convergence thresh. =      1.0E-04
     press convergence thresh. =      5.0E-01
     Exchange-correlation= SLA  PW   PSX  PSC
                           (   1   4  10   8   0   0   0)
     nstep                     =           50

     celldm(1)=   4.662505  celldm(2)=   0.000000  celldm(3)=   3.162607
     celldm(4)=   0.000000  celldm(5)=   0.000000  celldm(6)=   0.000000

     crystal axes: (cart. coord. in units of alat)
               a(1) = (   1.000000   0.000000   0.000000 )
               a(2) = (  -0.500000   0.866025   0.000000 )
               a(3) = (   0.000000   0.000000   3.162607 )

     reciprocal axes: (cart. coord. in units 2 pi/alat)
               b(1) = (  1.000000  0.577350 -0.000000 )
               b(2) = (  0.000000  1.154701  0.000000 )
               b(3) = (  0.000000 -0.000000  0.316195 )

     PseudoPot. # 1 for C  read from file:
     ./../../pseudos/C.pbesol-n-kjpaw_psl.1.0.0.UPF
     MD5 check sum: f9b2fe17d1f478429498b05d17159f9e
     Pseudo is Projector augmented-wave + core cor, Zval =  4.0
     Generated using &quot;atomic&quot; code by A. Dal Corso  v.6.3
     Shape of augmentation charge: PSQ
     Using radial grid of 1073 points,  4 beta functions with:
                l(1) =   0
                l(2) =   0
                l(3) =   1
                l(4) =   1
     Q(r) pseudized with 0 coefficients

     atomic species   valence    mass     pseudopotential
     C                 4.00    12.01100     C ( 1.00)

     24 Sym. Ops., with inversion, found (12 have fractional translation)

   Cartesian axes

     site n.     atom                  positions (alat units)
         1        C      tau(   1) = (   0.0000000   0.0000000   0.7906518  )
         2        C      tau(   2) = (   0.0000000   0.0000000   2.3719553  )
         3        C      tau(   3) = (   0.0000000   0.5773503   0.7906518  )
         4        C      tau(   4) = (   0.5000000   0.2886751   2.3719553  )

     DFT-D3 Dispersion Correction (3-body terms):
       Reference C6 values for interpolation:

         atom   Coordination number   C6
         C          0.000            98.23
         C          0.987            86.49
         C          1.998            58.72
         C          2.999            51.56
         C          3.984            36.41

       Values used:

         atom   Coordination number  R0_AB[au]  C6      C8
         C          3.313            2.750     48.31   1397.35
         C          3.313            2.750     48.31   1397.35
         C          3.313            2.750     48.32   1397.37
         C          3.313            2.750     48.32   1397.37

         Molecular C6 ( Ry / a.u.^6 ) =       773.04

     number of k points=    57  Gaussian smearing, width (Ry)=  0.0200
                       cart. coord. in units 2pi/alat
        k(    1) = (   0.0000000   0.0000000   0.0000000), wk =   0.0034722
        k(    2) = (   0.0000000   0.0000000   0.0790487), wk =   0.0069444
        k(    3) = (   0.0000000   0.0000000  -0.1580974), wk =   0.0034722
        k(    4) = (   0.0000000   0.0962250   0.0000000), wk =   0.0208333
        k(    5) = (   0.0000000   0.0962250   0.0790487), wk =   0.0416667
        k(    6) = (   0.0000000   0.0962250  -0.1580974), wk =   0.0208333
        k(    7) = (   0.0000000   0.1924501   0.0000000), wk =   0.0208333
        k(    8) = (   0.0000000   0.1924501   0.0790487), wk =   0.0416667
        k(    9) = (   0.0000000   0.1924501  -0.1580974), wk =   0.0208333
        k(   10) = (   0.0000000   0.2886751   0.0000000), wk =   0.0208333
        k(   11) = (   0.0000000   0.2886751   0.0790487), wk =   0.0416667
        k(   12) = (   0.0000000   0.2886751  -0.1580974), wk =   0.0208333
        k(   13) = (   0.0000000   0.3849002   0.0000000), wk =   0.0208333
        k(   14) = (   0.0000000   0.3849002   0.0790487), wk =   0.0416667
        k(   15) = (   0.0000000   0.3849002  -0.1580974), wk =   0.0208333
        k(   16) = (   0.0000000   0.4811252   0.0000000), wk =   0.0208333
        k(   17) = (   0.0000000   0.4811252   0.0790487), wk =   0.0416667
        k(   18) = (   0.0000000   0.4811252  -0.1580974), wk =   0.0208333
        k(   19) = (   0.0000000  -0.5773503   0.0000000), wk =   0.0104167
        k(   20) = (   0.0000000  -0.5773503   0.0790487), wk =   0.0208333
        k(   21) = (   0.0000000  -0.5773503  -0.1580974), wk =   0.0104167
        k(   22) = (   0.0833333   0.1443376   0.0000000), wk =   0.0208333
        k(   23) = (   0.0833333   0.1443376   0.0790487), wk =   0.0416667
        k(   24) = (   0.0833333   0.1443376  -0.1580974), wk =   0.0208333
        k(   25) = (   0.0833333   0.2405626   0.0000000), wk =   0.0416667
        k(   26) = (   0.0833333   0.2405626   0.0790487), wk =   0.0833333
        k(   27) = (   0.0833333   0.2405626  -0.1580974), wk =   0.0416667
        k(   28) = (   0.0833333   0.3367877   0.0000000), wk =   0.0416667
        k(   29) = (   0.0833333   0.3367877   0.0790487), wk =   0.0833333
        k(   30) = (   0.0833333   0.3367877  -0.1580974), wk =   0.0416667
        k(   31) = (   0.0833333   0.4330127   0.0000000), wk =   0.0416667
        k(   32) = (   0.0833333   0.4330127   0.0790487), wk =   0.0833333
        k(   33) = (   0.0833333   0.4330127  -0.1580974), wk =   0.0416667
        k(   34) = (   0.0833333   0.5292377   0.0000000), wk =   0.0416667
        k(   35) = (   0.0833333   0.5292377   0.0790487), wk =   0.0833333
        k(   36) = (   0.0833333   0.5292377  -0.1580974), wk =   0.0416667
        k(   37) = (   0.1666667   0.2886751   0.0000000), wk =   0.0208333
        k(   38) = (   0.1666667   0.2886751   0.0790487), wk =   0.0416667
        k(   39) = (   0.1666667   0.2886751  -0.1580974), wk =   0.0208333
        k(   40) = (   0.1666667   0.3849002   0.0000000), wk =   0.0416667
        k(   41) = (   0.1666667   0.3849002   0.0790487), wk =   0.0833333
        k(   42) = (   0.1666667   0.3849002  -0.1580974), wk =   0.0416667
        k(   43) = (   0.1666667   0.4811252   0.0000000), wk =   0.0416667
        k(   44) = (   0.1666667   0.4811252   0.0790487), wk =   0.0833333
        k(   45) = (   0.1666667   0.4811252  -0.1580974), wk =   0.0416667
        k(   46) = (   0.1666667   0.5773503   0.0000000), wk =   0.0208333
        k(   47) = (   0.1666667   0.5773503   0.0790487), wk =   0.0416667
        k(   48) = (   0.1666667   0.5773503  -0.1580974), wk =   0.0208333
        k(   49) = (   0.2500000   0.4330127   0.0000000), wk =   0.0208333
        k(   50) = (   0.2500000   0.4330127   0.0790487), wk =   0.0416667
        k(   51) = (   0.2500000   0.4330127  -0.1580974), wk =   0.0208333
        k(   52) = (   0.2500000   0.5292377   0.0000000), wk =   0.0416667
        k(   53) = (   0.2500000   0.5292377   0.0790487), wk =   0.0833333
        k(   54) = (   0.2500000   0.5292377  -0.1580974), wk =   0.0416667
        k(   55) = (   0.3333333   0.5773503   0.0000000), wk =   0.0069444
        k(   56) = (   0.3333333   0.5773503   0.0790487), wk =   0.0138889
        k(   57) = (   0.3333333   0.5773503  -0.1580974), wk =   0.0069444

     Check: negative core charge=   -0.000011

     Initial potential from superposition of free atoms

     starting charge      15.9998, renormalised to      16.0000
     Starting wfcs are   16 randomized atomic wfcs
     Checking if some PAW data can be deallocated...

     Self-consistent Calculation

     iteration #  1     ecut=    40.00 Ry     beta= 0.70
     Davidson diagonalization with overlap
     ethr =  1.00E-02,  avg # of iterations =  2.9

     total energy              =     -72.43881163 Ry
     estimated scf accuracy    <       0.37122049 Ry

[...]

     iteration #  3     ecut=    40.00 Ry     beta= 0.70
     Davidson diagonalization with overlap
     c_bands:  1 eigenvalues not converged
     ethr =  2.34E-05,  avg # of iterations =  7.2

[...]

     End of self-consistent calculation

          k = 0.0000 0.0000 0.0000 (  1193 PWs)   bands (ev):

   -14.1529 -14.0668  -2.6970  -1.8294   2.3528   2.3528   2.3571   2.3571
     8.6153  13.6477  13.6478  13.6615

[...]

     the Fermi energy is     5.3607 ev

!    total energy              =     -72.48844355 Ry
     total all-electron energy =      -303.604555 Ry
     estimated scf accuracy    <       0.00000004 Ry
     smearing contrib. (-TS)   =      -0.00052278 Ry
     internal energy E=F+TS    =     -72.48792077 Ry

     The total energy is F=E-TS. E is the sum of the following terms:
     one-electron contribution =     -22.93501564 Ry
     hartree contribution      =      18.85518496 Ry
     xc contribution           =     -18.30992148 Ry
     ewald contribution        =     -26.51210758 Ry
     DFT-D3 Dispersion         =      -0.02533952 Ry
     one-center paw contrib.   =     -23.56072151 Ry

     convergence has been achieved in   6 iterations

     Forces acting on atoms (cartesian axes, Ry/au):

     atom    1 type  1   force =     0.00000000    0.00000000    0.00000000
     atom    2 type  1   force =    -0.00000000   -0.00000000    0.00000000
     atom    3 type  1   force =    -0.00000000   -0.00000000    0.00000000
     atom    4 type  1   force =     0.00000000    0.00000000    0.00000000

     Total force =     0.000000     Total SCF correction =     0.000000

     Computing stress (Cartesian axis) and pressure

          total   stress  (Ry/bohr**3)                   (kbar)     P=      -36.02
  -0.00027996   0.00000000  -0.00000000          -41.18        0.00       -0.00
   0.00000000  -0.00027996  -0.00000000            0.00      -41.18       -0.00
   0.00000000  -0.00000000  -0.00017467            0.00       -0.00      -25.69

     BFGS Geometry Optimization
     Energy error            =      0.0E+00 Ry
     Gradient error          =      1.6E-25 Ry/Bohr
     Cell gradient error     =      4.1E+01 kbar

     number of scf cycles    =   1
     number of bfgs steps    =   0

     enthalpy           new  =     -72.4884435508 Ry

     new trust radius        =       0.0233227880 bohr
ibrav =      4
 celldm(1) =      4.62987224
 celldm(3) =      3.17099045
Input lattice vectors:
     0.99300104     0.00000000     0.00000000
    -0.49650052     0.85996413    -0.00000000
    -0.00000000    -0.00000000     3.14879681
New lattice vectors in INITIAL alat:
     0.99300104     0.00000000     0.00000000
    -0.49650052     0.85996413     0.00000000
     0.00000000     0.00000000     3.14879681
New lattice vectors in NEW alat (for information only):
     1.00000000     0.00000000     0.00000000
    -0.50000000     0.86602540     0.00000000
     0.00000000     0.00000000     3.17099045
Discrepancy in bohr =     0.000000    0.000000    0.000000
     new conv_thr            =       0.0000001000 Ry

     new unit-cell volume =    272.54147 a.u.^3 (    40.38648 Ang^3 )
     density =      1.97539 g/cm^3

CELL_PARAMETERS (alat=  4.66250493)
   0.993001039   0.000000000   0.000000000
  -0.496500519   0.859964126   0.000000000
   0.000000000   0.000000000   3.148796809

ATOMIC_POSITIONS (crystal)
C                0.0000000000        0.0000000000        0.2500000000
C               -0.0000000000       -0.0000000000        0.7500000000
C                0.3333333330        0.6666666660        0.2500000000
C                0.6666666660        0.3333333330        0.7500000000

     Writing config-only to output data dir ./temp/graphite.save/ :
     XML data file
     NEW-OLD atomic charge density approx. for the potential

[...]

     Energy error            =      2.5E-04 Ry
     Gradient error          =      2.8E-25 Ry/Bohr
     Cell gradient error     =      3.9E+01 kbar

[...]

     enthalpy           old  =     -72.4884435508 Ry
     enthalpy           new  =     -72.4886928147 Ry

     CASE: enthalpy          _new < enthalpy          _old

[...]

     Threshold (ethr) on eigenvalues was too large:
     Diagonalizing with lowered threshold

     Davidson diagonalization with overlap
     ethr =  6.62E-08,  avg # of iterations =  1.5

[...]

     Energy error            =      1.5E-05 Ry
     Gradient error          =      2.1E-25 Ry/Bohr
     Cell gradient error     =      2.3E-01 kbar

     number of scf cycles    =  12
     number of bfgs steps    =  11

     enthalpy           old  =     -72.4934996157 Ry
     enthalpy           new  =     -72.4935142351 Ry

     CASE: enthalpy          _new < enthalpy          _old

     new trust radius        =       0.0018032126 bohr
ibrav =      4
 celldm(1) =      4.64582592
 celldm(3) =      2.68363019
Input lattice vectors:
     0.99642274     0.00000000    -0.00000000
    -0.49821137     0.86292740     0.00000000
    -0.00000000    -0.00000000     2.67403013
New lattice vectors in INITIAL alat:
     0.99642274     0.00000000     0.00000000
    -0.49821137     0.86292740     0.00000000
     0.00000000     0.00000000     2.67403013
New lattice vectors in NEW alat (for information only):
     1.00000000     0.00000000     0.00000000
    -0.50000000     0.86602540     0.00000000
     0.00000000     0.00000000     2.68363019
Discrepancy in bohr =     0.000000    0.000000    0.000000
     new conv_thr            =       0.0000000010 Ry

     new unit-cell volume =    233.04624 a.u.^3 (    34.53389 Ang^3 )
     density =      2.31016 g/cm^3

[...]

ATOMIC_POSITIONS (crystal)
C                0.0000000000        0.0000000000        0.2500000000
C               -0.0000000000       -0.0000000000        0.7500000000
C                0.3333333330        0.6666666660        0.2500000000
C                0.6666666660        0.3333333330        0.7500000000

     Writing config-only to output data dir ./temp/graphite.save/ :
     XML data file
     NEW-OLD atomic charge density approx. for the potential

[...]

     Threshold (ethr) on eigenvalues was too large:
     Diagonalizing with lowered threshold

     Davidson diagonalization with overlap
     ethr =  3.00E-10,  avg # of iterations =  2.7

[...]

     Energy error            =      1.3E-07 Ry
     Gradient error          =      1.4E-25 Ry/Bohr
     Cell gradient error     =      5.9E-02 kbar
ibrav =      4
 celldm(1) =      4.64582592
 celldm(3) =      2.68363019
Input lattice vectors:
     0.99642274     0.00000000     0.00000000
    -0.49821137     0.86292740     0.00000000
     0.00000000     0.00000000     2.67403013
New lattice vectors in INITIAL alat:
     0.99642274     0.00000000     0.00000000
    -0.49821137     0.86292740     0.00000000
     0.00000000     0.00000000     2.67403013
New lattice vectors in NEW alat (for information only):
     1.00000000     0.00000000     0.00000000
    -0.50000000     0.86602540     0.00000000
     0.00000000     0.00000000     2.68363019
Discrepancy in bohr =     0.000000    0.000000    0.000000

     bfgs converged in  13 scf cycles and  12 bfgs steps
     (criteria: energy <  1.0E-05 Ry, force <  1.0E-04 Ry/Bohr, cell <  5.0E-01 kbar)

     End of BFGS Geometry Optimization

     Final enthalpy           =     -72.4935143643 Ry

     File ./temp/graphite.bfgs deleted, as requested
Begin final coordinates
     new unit-cell volume =    233.04624 a.u.^3 (    34.53389 Ang^3 )
     density =      2.31016 g/cm^3

CELL_PARAMETERS (alat=  4.66250493)
   0.996422736   0.000000000   0.000000000
  -0.498211368   0.862927402   0.000000000
   0.000000000   0.000000000   2.674030134

ATOMIC_POSITIONS (crystal)
C                0.0000000000        0.0000000000        0.2500000000
C               -0.0000000000       -0.0000000000        0.7500000000
C                0.3333333330        0.6666666660        0.2500000000
C                0.6666666660        0.3333333330        0.7500000000
End final coordinates

     Writing config-only to output data dir ./temp/graphite.save/ :
     XML data file

     Final scf calculation at the relaxed structure.
     The G-vectors are recalculated for the final unit cell
     Results may differ from those at the preceding step.

     Using Slab Decomposition

     bravais-lattice index     =            4
     lattice parameter (alat)  =       4.6625  a.u.
     unit-cell volume          =     233.0462 (a.u.)^3
     number of atoms/cell      =            4
     number of atomic types    =            1
     number of electrons       =        16.00
     number of Kohn-Sham states=           12
     kinetic-energy cutoff     =      40.0000  Ry
     charge density cutoff     =     320.0000  Ry
     scf convergence threshold =      1.0E-09
     mixing beta               =       0.7000
     number of iterations used =            8  plain     mixing
     press convergence thresh. =      5.0E-01
     Exchange-correlation= SLA  PW   PSX  PSC
                           (   1   4  10   8   0   0   0)

     celldm(1)=   4.662505  celldm(2)=   0.000000  celldm(3)=   3.162607
     celldm(4)=   0.000000  celldm(5)=   0.000000  celldm(6)=   0.000000

     crystal axes: (cart. coord. in units of alat)
               a(1) = (   0.996423   0.000000   0.000000 )
               a(2) = (  -0.498211   0.862927   0.000000 )
               a(3) = (   0.000000   0.000000   2.674030 )

     reciprocal axes: (cart. coord. in units 2 pi/alat)
               b(1) = (  1.003590  0.579423 -0.000000 )
               b(2) = (  0.000000  1.158846  0.000000 )
               b(3) = (  0.000000 -0.000000  0.373967 )

     PseudoPot. # 1 for C  read from file:
     ./../../pseudos/C.pbesol-n-kjpaw_psl.1.0.0.UPF
     MD5 check sum: f9b2fe17d1f478429498b05d17159f9e
     Pseudo is Projector augmented-wave + core cor, Zval =  4.0
     Generated using &quot;atomic&quot; code by A. Dal Corso  v.6.3
     Shape of augmentation charge: PSQ
     Using radial grid of 1073 points,  4 beta functions with:
                l(1) =   0
                l(2) =   0
                l(3) =   1
                l(4) =   1
     Q(r) pseudized with 0 coefficients

     atomic species   valence    mass     pseudopotential
     C                 4.00    12.01100     C ( 1.00)

     24 Sym. Ops., with inversion, found (12 have fractional translation)

   Cartesian axes

     site n.     atom                  positions (alat units)
         1        C      tau(   1) = (   0.0000000   0.0000000   0.6685075  )
         2        C      tau(   2) = (  -0.0000000  -0.0000000   2.0055226  )
         3        C      tau(   3) = (   0.0000000   0.5752849   0.6685075  )
         4        C      tau(   4) = (   0.4982114   0.2876425   2.0055226  )

     DFT-D3 Dispersion Correction (3-body terms):
       Reference C6 values for interpolation:

         atom   Coordination number   C6
         C          0.000            98.23
         C          0.987            86.49
         C          1.998            58.72
         C          2.999            51.56
         C          3.984            36.41

       Values used:

         atom   Coordination number  R0_AB[au]  C6      C8
         C          3.337            2.750     47.79   1382.06
         C          3.337            2.750     47.79   1382.06
         C          3.337            2.750     47.80   1382.40
         C          3.337            2.750     47.80   1382.40

         Molecular C6 ( Ry / a.u.^6 ) =       764.67

     number of k points=    57  Gaussian smearing, width (Ry)=  0.0200
                       cart. coord. in units 2pi/alat
        k(    1) = (   0.0000000   0.0000000   0.0000000), wk =   0.0034722
        k(    2) = (   0.0000000   0.0000000   0.0934918), wk =   0.0069444
        k(    3) = (   0.0000000   0.0000000  -0.1869837), wk =   0.0034722
        k(    4) = (   0.0000000   0.0965705   0.0000000), wk =   0.0208333
        k(    5) = (   0.0000000   0.0965705   0.0934918), wk =   0.0416667
        k(    6) = (   0.0000000   0.0965705  -0.1869837), wk =   0.0208333
        k(    7) = (   0.0000000   0.1931410   0.0000000), wk =   0.0208333
        k(    8) = (   0.0000000   0.1931410   0.0934918), wk =   0.0416667
        k(    9) = (   0.0000000   0.1931410  -0.1869837), wk =   0.0208333
        k(   10) = (   0.0000000   0.2897115   0.0000000), wk =   0.0208333
        k(   11) = (   0.0000000   0.2897115   0.0934918), wk =   0.0416667
        k(   12) = (   0.0000000   0.2897115  -0.1869837), wk =   0.0208333
        k(   13) = (   0.0000000   0.3862820   0.0000000), wk =   0.0208333
        k(   14) = (   0.0000000   0.3862820   0.0934918), wk =   0.0416667
        k(   15) = (   0.0000000   0.3862820  -0.1869837), wk =   0.0208333
        k(   16) = (   0.0000000   0.4828525   0.0000000), wk =   0.0208333
        k(   17) = (   0.0000000   0.4828525   0.0934918), wk =   0.0416667
        k(   18) = (   0.0000000   0.4828525  -0.1869837), wk =   0.0208333
        k(   19) = (   0.0000000  -0.5794230   0.0000000), wk =   0.0104167
        k(   20) = (   0.0000000  -0.5794230   0.0934918), wk =   0.0208333
        k(   21) = (   0.0000000  -0.5794230  -0.1869837), wk =   0.0104167
        k(   22) = (   0.0836325   0.1448558   0.0000000), wk =   0.0208333
        k(   23) = (   0.0836325   0.1448558   0.0934918), wk =   0.0416667
        k(   24) = (   0.0836325   0.1448558  -0.1869837), wk =   0.0208333
        k(   25) = (   0.0836325   0.2414263   0.0000000), wk =   0.0416667
        k(   26) = (   0.0836325   0.2414263   0.0934918), wk =   0.0833333
        k(   27) = (   0.0836325   0.2414263  -0.1869837), wk =   0.0416667
        k(   28) = (   0.0836325   0.3379968   0.0000000), wk =   0.0416667
        k(   29) = (   0.0836325   0.3379968   0.0934918), wk =   0.0833333
        k(   30) = (   0.0836325   0.3379968  -0.1869837), wk =   0.0416667
        k(   31) = (   0.0836325   0.4345673   0.0000000), wk =   0.0416667
        k(   32) = (   0.0836325   0.4345673   0.0934918), wk =   0.0833333
        k(   33) = (   0.0836325   0.4345673  -0.1869837), wk =   0.0416667
        k(   34) = (   0.0836325   0.5311378   0.0000000), wk =   0.0416667
        k(   35) = (   0.0836325   0.5311378   0.0934918), wk =   0.0833333
        k(   36) = (   0.0836325   0.5311378  -0.1869837), wk =   0.0416667
        k(   37) = (   0.1672650   0.2897115   0.0000000), wk =   0.0208333
        k(   38) = (   0.1672650   0.2897115   0.0934918), wk =   0.0416667
        k(   39) = (   0.1672650   0.2897115  -0.1869837), wk =   0.0208333
        k(   40) = (   0.1672650   0.3862820   0.0000000), wk =   0.0416667
        k(   41) = (   0.1672650   0.3862820   0.0934918), wk =   0.0833333
        k(   42) = (   0.1672650   0.3862820  -0.1869837), wk =   0.0416667
        k(   43) = (   0.1672650   0.4828525   0.0000000), wk =   0.0416667
        k(   44) = (   0.1672650   0.4828525   0.0934918), wk =   0.0833333
        k(   45) = (   0.1672650   0.4828525  -0.1869837), wk =   0.0416667
        k(   46) = (   0.1672650   0.5794230   0.0000000), wk =   0.0208333
        k(   47) = (   0.1672650   0.5794230   0.0934918), wk =   0.0416667
        k(   48) = (   0.1672650   0.5794230  -0.1869837), wk =   0.0208333
        k(   49) = (   0.2508975   0.4345673   0.0000000), wk =   0.0208333
        k(   50) = (   0.2508975   0.4345673   0.0934918), wk =   0.0416667
        k(   51) = (   0.2508975   0.4345673  -0.1869837), wk =   0.0208333
        k(   52) = (   0.2508975   0.5311378   0.0000000), wk =   0.0416667
        k(   53) = (   0.2508975   0.5311378   0.0934918), wk =   0.0833333
        k(   54) = (   0.2508975   0.5311378  -0.1869837), wk =   0.0416667
        k(   55) = (   0.3345300   0.5794230   0.0000000), wk =   0.0069444
        k(   56) = (   0.3345300   0.5794230   0.0934918), wk =   0.0138889
        k(   57) = (   0.3345300   0.5794230  -0.1869837), wk =   0.0069444

     Check: negative core charge=   -0.000012

     Initial potential from superposition of free atoms

     starting charge      15.9998, renormalised to      16.0000
     Starting wfcs are   16 randomized atomic wfcs
     Checking if some PAW data can be deallocated...

     Self-consistent Calculation

[...]

     iteration #  5     ecut=    40.00 Ry     beta= 0.70
     Davidson diagonalization with overlap
     c_bands:  1 eigenvalues not converged
     ethr =  3.31E-08,  avg # of iterations =  3.4

[...]

     total energy              =     -72.49255938 Ry
     estimated scf accuracy    <          3.3E-09 Ry

     iteration #  8     ecut=    40.00 Ry     beta= 0.70
     Davidson diagonalization with overlap
     ethr =  2.07E-11,  avg # of iterations =  2.0

     End of self-consistent calculation

[...]

          k = 0.3345 0.5794-0.1870 (   984 PWs)   bands (ev):

    -5.3648  -5.3648  -5.3565  -5.3565  -3.4690  -3.4690   7.1606   7.1606
     7.1846   7.1846  17.1119  17.1119

     the Fermi energy is     7.1625 ev

!    total energy              =     -72.49255938 Ry
     total all-electron energy =      -303.608671 Ry
     estimated scf accuracy    <          1.6E-10 Ry
     smearing contrib. (-TS)   =      -0.00039438 Ry
     internal energy E=F+TS    =     -72.49216500 Ry

     The total energy is F=E-TS. E is the sum of the following terms:
     one-electron contribution =      -8.86493567 Ry
     hartree contribution      =      12.91059327 Ry
     xc contribution           =     -18.35746005 Ry
     ewald contribution        =     -34.58794706 Ry
     DFT-D3 Dispersion         =      -0.03013629 Ry
     one-center paw contrib.   =     -23.56227919 Ry

     convergence has been achieved in   8 iterations

     Forces acting on atoms (cartesian axes, Ry/au):

     atom    1 type  1   force =     0.00000000    0.00000000    0.00000000
     atom    2 type  1   force =    -0.00000000   -0.00000000    0.00000000
     atom    3 type  1   force =     0.00000000    0.00000000    0.00000000
     atom    4 type  1   force =    -0.00000000   -0.00000000    0.00000000

     Total force =     0.000000     Total SCF correction =     0.000000

     Computing stress (Cartesian axis) and pressure

          total   stress  (Ry/bohr**3)                   (kbar)     P=       -4.58
  -0.00002231   0.00000000   0.00000000           -3.28        0.00        0.00
   0.00000000  -0.00002231   0.00000000            0.00       -3.28        0.00
  -0.00000000  -0.00000000  -0.00004872           -0.00       -0.00       -7.17

     Writing all to output data dir ./temp/graphite.save/ :
     XML data file, charge density, pseudopotentials, collected wavefunctions

     General routines

     Parallel routines

   This run was terminated on:  22:31:47  25Dec2024

   JOB DONE.