     Program PWSCF v.7.3.1 starts on 20Jan2025 at 12:17:36

     Reading input from vc_relax.in

     Current dimensions of program PWSCF are:
     Max number of different atomic species (ntypx) = 10
     Max number of k-points (npk) =  40000
     Max angular momentum in pseudopotentials (lmaxx) =  4
     file Mn.pbe-spn-kjpaw_psl.0.3.1.UPF: wavefunction(s)  3P 3D renormalized
     file Mn.pbe-spn-kjpaw_psl.0.3.1.UPF: wavefunction(s)  3P 3D renormalized
     file Mn.pbe-spn-kjpaw_psl.0.3.1.UPF: wavefunction(s)  3P 3D renormalized
     file Mn.pbe-spn-kjpaw_psl.0.3.1.UPF: wavefunction(s)  3P 3D renormalized
     file S.pbe-n-kjpaw_psl.1.0.0.UPF: wavefunction(s)  3S 3P renormalized

     R & G space division:  proc/nbgrp/npool/nimage =       3
     Subspace diagonalization in iterative solution of the eigenvalue problem:
     a serial algorithm will be used

     Using Slab Decomposition

     bravais-lattice index     =            0
     lattice parameter (alat)  =      14.7866  a.u.
     unit-cell volume          =    1143.0296 (a.u.)^3
     number of atoms/cell      =            8
     number of atomic types    =            5
     number of electrons       =        84.00
     number of Kohn-Sham states=           50
     kinetic-energy cutoff     =      30.0000  Ry
     charge density cutoff     =     150.0000  Ry
     scf convergence threshold =      1.0E-10
     mixing beta               =       0.7000
     number of iterations used =            8  plain     mixing
     energy convergence thresh.=      1.0E-05
     force convergence thresh. =      1.0E-04
     press convergence thresh. =      5.0E-01
     Exchange-correlation= SLA  PW   PBX  PBC
                           (   1   4   3   4   0   0   0)
     nstep                     =           50

     celldm(1)=  14.786571  celldm(2)=   0.000000  celldm(3)=   0.000000
     celldm(4)=   0.000000  celldm(5)=   0.000000  celldm(6)=   0.000000

     crystal axes: (cart. coord. in units of alat)
               a(1) = (   1.000000   0.000000   0.000000 )
               a(2) = (   0.500000   0.866025   0.000000 )
               a(3) = (   0.250000   0.144338   0.408248 )

     reciprocal axes: (cart. coord. in units 2 pi/alat)
               b(1) = (  1.000000 -0.577350 -0.408248 )
               b(2) = (  0.000000  1.154700 -0.408248 )
               b(3) = (  0.000000  0.000000  2.449490 )

     PseudoPot. # 1 for Mn read from file:
     ./../../../pseudos/Mn.pbe-spn-kjpaw_psl.0.3.1.UPF
     MD5 check sum: ba19e6d7ccbc12830efad05ba8577d9c
     Pseudo is Projector augmented-wave + core cor, Zval = 15.0
     Generated using &quot;atomic&quot; code by A. Dal Corso  v.6.2.2
     Shape of augmentation charge: PSQ
     Using radial grid of 1187 points,  6 beta functions with:
                l(1) =   0
                l(2) =   0
                l(3) =   1
                l(4) =   1
                l(5) =   2
                l(6) =   2
     Q(r) pseudized with 0 coefficients

[...]

     PseudoPot. # 5 for S  read from file:
     ./../../../pseudos/S.pbe-n-kjpaw_psl.1.0.0.UPF
     MD5 check sum: fb45dfebcf3e72a4e1bd4a866ec2e262
     Pseudo is Projector augmented-wave + core cor, Zval =  6.0
     Generated using &quot;atomic&quot; code by A. Dal Corso  v.6.3
     Shape of augmentation charge: PSQ
     Using radial grid of 1151 points,  6 beta functions with:
                l(1) =   0
                l(2) =   0
                l(3) =   1
                l(4) =   1
                l(5) =   2
                l(6) =   2
     Q(r) pseudized with 0 coefficients

     atomic species   valence    mass     pseudopotential
     Mn1              15.00    54.93800     Mn( 1.00)
     Mn2              15.00    54.93800     Mn( 1.00)
     Mn3              15.00    54.93800     Mn( 1.00)
     Mn4              15.00    54.93800     Mn( 1.00)
     S                 6.00    32.06500     S ( 1.00)

     Starting magnetic structure
     atomic species   magnetization
     Mn1             0.200
     Mn2            -0.200
     Mn3            -0.200
     Mn4             0.200
     S               0.000

     No symmetry found

                                    s                        frac. trans.

      isym =  1     identity

 cryst.   s( 1) = (     1          0          0      )
                  (     0          1          0      )
                  (     0          0          1      )

 cart.    s( 1) = (  1.0000000  0.0000000  0.0000000 )
                  (  0.0000000  1.0000000  0.0000000 )
                  (  0.0000000  0.0000000  1.0000000 )

   Cartesian axes

     site n.     atom                  positions (alat units)
         1        Mn1    tau(   1) = (   0.7500000   0.4330127   0.3061862  )
         2        Mn2    tau(   2) = (   0.9999999   0.8660254   0.3061862  )
         3        Mn3    tau(   3) = (   1.2500000   0.4330127   0.3061862  )
         4        Mn4    tau(   4) = (   1.4999999   0.8660254   0.3061862  )
         5        S      tau(   5) = (   0.0000000   0.0000000   0.0000000  )
         6        S      tau(   6) = (   0.2500000   0.4330127   0.0000000  )
         7        S      tau(   7) = (   0.5000000   0.0000000   0.0000000  )
         8        S      tau(   8) = (   0.7500000   0.4330127   0.0000000  )

   Crystallographic axes

     site n.     atom                  positions (cryst. coord.)
         1        Mn1    tau(   1) = (  0.3750000  0.3750000  0.7500000  )
         2        Mn2    tau(   2) = (  0.3750000  0.8750000  0.7500000  )
         3        Mn3    tau(   3) = (  0.8750000  0.3750000  0.7500000  )
         4        Mn4    tau(   4) = (  0.8750000  0.8750000  0.7500000  )
         5        S      tau(   5) = (  0.0000000  0.0000000  0.0000000  )
         6        S      tau(   6) = (  0.0000000  0.5000000  0.0000000  )
         7        S      tau(   7) = (  0.5000000  0.0000000  0.0000000  )
         8        S      tau(   8) = (  0.5000000  0.5000000  0.0000000  )

     number of k points=    23  Gaussian smearing, width (Ry)=  0.0100
                       cart. coord. in units 2pi/alat
        k(    1) = (   0.0000000   0.0000000   0.0000000), wk =   0.0222222
        k(    2) = (   0.0000000   0.0000000   0.4898979), wk =   0.0444444
        k(    3) = (   0.0000000   0.0000000   0.9797958), wk =   0.0444444
        k(    4) = (   0.0000000   0.3849002  -0.1360827), wk =   0.0444444
        k(    5) = (   0.0000000   0.3849002   0.3538152), wk =   0.0444444
        k(    6) = (   0.0000000   0.3849002   0.8437131), wk =   0.0444444
        k(    7) = (   0.0000000   0.3849002  -1.1158786), wk =   0.0444444
        k(    8) = (   0.0000000   0.3849002  -0.6259807), wk =   0.0444444
        k(    9) = (   0.3333333   0.1924501  -0.2721655), wk =   0.0444444
        k(   10) = (   0.3333333   0.1924501   0.2177324), wk =   0.0444444
        k(   11) = (   0.3333333   0.1924501   0.7076304), wk =   0.0444444
        k(   12) = (   0.3333333   0.1924501  -1.2519613), wk =   0.0444444
        k(   13) = (   0.3333333   0.1924501  -0.7620634), wk =   0.0444444
        k(   14) = (   0.3333333  -0.5773502   0.0000000), wk =   0.0444444
        k(   15) = (   0.3333333  -0.5773502   0.4898979), wk =   0.0444444
        k(   16) = (   0.3333333  -0.5773502   0.9797959), wk =   0.0444444
        k(   17) = (  -0.3333333   0.1924501   0.1360827), wk =   0.0444444
        k(   18) = (  -0.3333333   0.1924501  -0.3538152), wk =   0.0444444
        k(   19) = (  -0.3333333   0.1924501  -0.8437131), wk =   0.0444444
        k(   20) = (  -0.3333333   0.1924501   1.1158786), wk =   0.0444444
        k(   21) = (  -0.3333333   0.1924501   0.6259807), wk =   0.0444444
        k(   22) = (   0.3333333  -0.5773502  -0.4898979), wk =   0.0444444
        k(   23) = (   0.3333333  -0.5773502  -0.9797958), wk =   0.0444444

                       cryst. coord.
        k(    1) = (   0.0000000   0.0000000   0.0000000), wk =   0.0222222
        k(    2) = (   0.0000000   0.0000000   0.2000000), wk =   0.0444444
        k(    3) = (   0.0000000   0.0000000   0.4000000), wk =   0.0444444
        k(    4) = (   0.0000000   0.3333333   0.0000000), wk =   0.0444444
        k(    5) = (   0.0000000   0.3333333   0.2000000), wk =   0.0444444
        k(    6) = (   0.0000000   0.3333333   0.4000000), wk =   0.0444444
        k(    7) = (   0.0000000   0.3333333  -0.4000000), wk =   0.0444444
        k(    8) = (   0.0000000   0.3333333  -0.2000000), wk =   0.0444444
        k(    9) = (   0.3333333   0.3333333   0.0000000), wk =   0.0444444
        k(   10) = (   0.3333333   0.3333333   0.2000000), wk =   0.0444444
        k(   11) = (   0.3333333   0.3333333   0.4000000), wk =   0.0444444
        k(   12) = (   0.3333333   0.3333333  -0.4000000), wk =   0.0444444
        k(   13) = (   0.3333333   0.3333333  -0.2000000), wk =   0.0444444
        k(   14) = (   0.3333333  -0.3333333   0.0000000), wk =   0.0444444
        k(   15) = (   0.3333333  -0.3333333   0.2000000), wk =   0.0444444
        k(   16) = (   0.3333333  -0.3333333   0.4000000), wk =   0.0444444
        k(   17) = (  -0.3333333   0.0000000  -0.0000000), wk =   0.0444444
        k(   18) = (  -0.3333333   0.0000000  -0.2000000), wk =   0.0444444
        k(   19) = (  -0.3333333   0.0000000  -0.4000000), wk =   0.0444444
        k(   20) = (  -0.3333333   0.0000000   0.4000000), wk =   0.0444444
        k(   21) = (  -0.3333333   0.0000000   0.2000000), wk =   0.0444444
        k(   22) = (   0.3333333  -0.3333333  -0.2000000), wk =   0.0444444
        k(   23) = (   0.3333333  -0.3333333  -0.4000000), wk =   0.0444444

     Check: negative core charge=   -0.000237
     Generating pointlists ...
     new r_m :   0.1263 (alat units)  1.8676 (a.u.) for type    1
     new r_m :   0.1263 (alat units)  1.8676 (a.u.) for type    2
     new r_m :   0.1263 (alat units)  1.8676 (a.u.) for type    3
     new r_m :   0.1263 (alat units)  1.8676 (a.u.) for type    4
     new r_m :   0.1263 (alat units)  1.8676 (a.u.) for type    5

     Initial potential from superposition of free atoms

     starting charge      83.9979, renormalised to      84.0000
     Starting wfcs are   56 randomized atomic wfcs
     Checking if some PAW data can be deallocated...

     Self-consistent Calculation

     iteration #  1     ecut=    30.00 Ry     beta= 0.70
     Davidson diagonalization with overlap

     ethr =  1.00E-02,  avg # of iterations =  2.0

     Threshold (ethr) on eigenvalues was too large:
     Diagonalizing with lowered threshold

     Davidson diagonalization with overlap

[...]

     total energy              =   -1411.05165791 Ry
     estimated scf accuracy    <       0.26529104 Ry

     total magnetization       =    -0.00 Bohr mag/cell
     absolute magnetization    =    16.09 Bohr mag/cell

[...]

     c_bands:  1 eigenvalues not converged
     c_bands:  2 eigenvalues not converged
     c_bands:  1 eigenvalues not converged
     ethr =  2.27E-06,  avg # of iterations = 12.5

[...]

     Magnetic moment per site  (integrated on atomic sphere of radius R)
     atom   1 (R=0.126)  charge= 12.9082  magn=  3.8823
     atom   2 (R=0.126)  charge= 12.9082  magn= -3.8823
[...]

      isym =  1     identity

 cryst.   s( 1) = (     1          0          0      )
                  (     0          1          0      )
                  (     0          0          1      )

 cart.    s( 1) = (  1.0000000  0.0000000  0.0000000 )
                  (  0.0000000  1.0000000  0.0000000 )
                  (  0.0000000  0.0000000  1.0000000 )

   Cartesian axes

     site n.     atom                  positions (alat units)
         1        Mn1    tau(   1) = (   0.6958245   0.4017346   0.2880083  )
         2        Mn2    tau(   2) = (   0.9267329   0.8038080   0.2898651  )
         3        Mn3    tau(   3) = (   1.1594847   0.4006704   0.2898650  )
         4        Mn4    tau(   4) = (   1.3903931   0.8027438   0.2917218  )
         5        S      tau(   5) = (  -0.0001192  -0.0000687  -0.0000331  )
         6        S      tau(   6) = (   0.2307892   0.4020046   0.0018237  )
         7        S      tau(   7) = (   0.4635409  -0.0011329   0.0018236  )
         8        S      tau(   8) = (   0.6944493   0.4009404   0.0036804  )

   Crystallographic axes

     site n.     atom                  positions (cryst. coord.)
         1        Mn1    tau(   1) = (  0.3750713  0.3750716  0.7500855  )
         2        Mn2    tau(   2) = (  0.3750714  0.8750713  0.7500858  )
         3        Mn3    tau(   3) = (  0.8750715  0.3750715  0.7500855  )
         4        Mn4    tau(   4) = (  0.8750715  0.8750713  0.7500856  )
         5        S      tau(   5) = ( -0.0000715 -0.0000713 -0.0000857  )
         6        S      tau(   6) = ( -0.0000714  0.4999284 -0.0000855  )
         7        S      tau(   7) = (  0.4999285 -0.0000713 -0.0000857  )
         8        S      tau(   8) = (  0.4999286  0.4999284 -0.0000855  )

     number of k points=    23  Gaussian smearing, width (Ry)=  0.0100
                       cart. coord. in units 2pi/alat
        k(    1) = (   0.0000000   0.0000000   0.0000000), wk =   0.0222222
        k(    2) = (  -0.0021160  -0.0012217   0.5276940), wk =   0.0444444
        k(    3) = (  -0.0042319  -0.0024433   1.0553879), wk =   0.0444444
        k(    4) = (   0.0015418   0.4143137  -0.1475414), wk =   0.0444444
        k(    5) = (  -0.0005742   0.4130921   0.3801526), wk =   0.0444444
        k(    6) = (  -0.0026901   0.4118704   0.9078465), wk =   0.0444444
        k(    7) = (   0.0057737   0.4167571  -1.2029293), wk =   0.0444444
        k(    8) = (   0.0036578   0.4155354  -0.6752353), wk =   0.0444444
        k(    9) = (   0.3611189   0.2084921  -0.2950828), wk =   0.0444444
        k(   10) = (   0.3590030   0.2072705   0.2326112), wk =   0.0444444
        k(   11) = (   0.3568870   0.2060488   0.7603051), wk =   0.0444444
        k(   12) = (   0.3653509   0.2109354  -1.3504707), wk =   0.0444444
        k(   13) = (   0.3632349   0.2097138  -0.8227767), wk =   0.0444444
        k(   14) = (   0.3580354  -0.6201354  -0.0000000), wk =   0.0444444
        k(   15) = (   0.3559194  -0.6213570   0.5276940), wk =   0.0444444
        k(   16) = (   0.3538034  -0.6225787   1.0553879), wk =   0.0444444
        k(   17) = (  -0.3595771   0.2058216   0.1475414), wk =   0.0444444
        k(   18) = (  -0.3574612   0.2070433  -0.3801526), wk =   0.0444444
        k(   19) = (  -0.3553452   0.2082649  -0.9078465), wk =   0.0444444
        k(   20) = (  -0.3638091   0.2033783   1.2029293), wk =   0.0444444
        k(   21) = (  -0.3616931   0.2046000   0.6752353), wk =   0.0444444
        k(   22) = (   0.3601513  -0.6189137  -0.5276940), wk =   0.0444444
        k(   23) = (   0.3622673  -0.6176921  -1.0553879), wk =   0.0444444

                       cryst. coord.
        k(    1) = (   0.0000000   0.0000000   0.0000000), wk =   0.0222222
        k(    2) = (   0.0000000   0.0000000   0.2000000), wk =   0.0444444
        k(    3) = (   0.0000000   0.0000000   0.4000000), wk =   0.0444444
        k(    4) = (   0.0000000   0.3333333   0.0000000), wk =   0.0444444
        k(    5) = (   0.0000000   0.3333333   0.2000000), wk =   0.0444444
        k(    6) = (  -0.0000000   0.3333333   0.4000000), wk =   0.0444444
        k(    7) = (   0.0000000   0.3333333  -0.4000000), wk =   0.0444444
        k(    8) = (  -0.0000000   0.3333333  -0.2000000), wk =   0.0444444
        k(    9) = (   0.3333333   0.3333333  -0.0000000), wk =   0.0444444
        k(   10) = (   0.3333333   0.3333333   0.2000000), wk =   0.0444444
        k(   11) = (   0.3333333   0.3333333   0.4000000), wk =   0.0444444
        k(   12) = (   0.3333333   0.3333333  -0.4000000), wk =   0.0444444
        k(   13) = (   0.3333333   0.3333333  -0.2000000), wk =   0.0444444
        k(   14) = (   0.3333333  -0.3333333   0.0000000), wk =   0.0444444
        k(   15) = (   0.3333333  -0.3333333   0.2000000), wk =   0.0444444
        k(   16) = (   0.3333333  -0.3333333   0.4000000), wk =   0.0444444
        k(   17) = (  -0.3333333  -0.0000000   0.0000000), wk =   0.0444444
        k(   18) = (  -0.3333333  -0.0000000  -0.2000000), wk =   0.0444444
        k(   19) = (  -0.3333333   0.0000000  -0.4000000), wk =   0.0444444
        k(   20) = (  -0.3333333  -0.0000000   0.4000000), wk =   0.0444444
        k(   21) = (  -0.3333333   0.0000000   0.2000000), wk =   0.0444444
        k(   22) = (   0.3333333  -0.3333333  -0.2000000), wk =   0.0444444
        k(   23) = (   0.3333333  -0.3333333  -0.4000000), wk =   0.0444444

     Check: negative core charge=   -0.000256
     Generating pointlists ...

     Initial potential from superposition of free atoms

     starting charge      83.9979, renormalised to      84.0000
     Starting wfcs are   56 randomized atomic wfcs
     Checking if some PAW data can be deallocated...

     Self-consistent Calculation

[...]

     c_bands:  1 eigenvalues not converged
     c_bands:  1 eigenvalues not converged
     c_bands:  1 eigenvalues not converged
     ethr =  8.77E-08,  avg # of iterations = 10.2

[...]

     total energy              =   -1411.05420105 Ry
     estimated scf accuracy    <          1.5E-12 Ry

[...]

     iteration # 24     ecut=    30.00 Ry     beta= 0.70
     Davidson diagonalization with overlap

     ethr =  1.00E-13,  avg # of iterations =  1.0

     Magnetic moment per site  (integrated on atomic sphere of radius R)
     atom   1 (R=0.118)  charge= 12.7440  magn=  3.2095
     atom   2 (R=0.118)  charge= 12.7440  magn= -3.2095
     atom   3 (R=0.118)  charge= 12.7440  magn= -3.2095
     atom   4 (R=0.118)  charge= 12.7440  magn=  3.2095
     atom   5 (R=0.118)  charge=  3.7621  magn= -0.0003
     atom   6 (R=0.118)  charge=  3.7621  magn=  0.0003
     atom   7 (R=0.118)  charge=  3.7621  magn=  0.0003
     atom   8 (R=0.118)  charge=  3.7621  magn= -0.0003

     End of self-consistent calculation

 ------ SPIN UP ------------

[...]

 ------ SPIN DOWN ----------

[...]

          k =-0.3617 0.2046 0.6752 (  2538 PWs)   bands (ev):

[...]

          k = 0.3623-0.6177-1.0554 (  2551 PWs)   bands (ev):

   -71.1502 -71.1502 -67.4451 -67.4450 -39.9465 -39.9461 -39.8749 -39.8748
   -39.8729 -39.8693 -36.2661 -36.2659 -36.2626 -36.2580 -36.2313 -36.2308
    -3.5581  -3.2067  -3.1611  -3.1288   4.4661   4.5218   4.6469   4.7175
     5.1277   5.3161   5.4180   5.7525   5.8389   6.0545   6.2135   6.2493
     7.7943   7.8932   8.0822   8.3463   8.5763   8.6336   8.8667   9.1820
     9.1935   9.6160  10.9633  11.0212  11.1397  11.5739  11.6283  11.8033
    11.9541  12.0956

     occupation numbers
     1.0000   1.0000   1.0000   1.0000   1.0000   1.0000   1.0000   1.0000
     1.0000   1.0000   1.0000   1.0000   1.0000   1.0000   1.0000   1.0000
     1.0000   1.0000   1.0000   1.0000   1.0000   1.0000   1.0000   1.0000
     1.0000   1.0000   1.0000   1.0000   1.0000   1.0000   1.0000   1.0000
     1.0000   1.0000   1.0000   1.0000   1.0000   1.0000   1.0000   1.0000
     1.0000   1.0000   0.0000   0.0000   0.0000   0.0000   0.0000   0.0000
     0.0000   0.0000

     the Fermi energy is    10.5461 ev

!    total energy              =   -1411.05420105 Ry
     total all-electron energy =    -12462.487815 Ry
     estimated scf accuracy    <          9.7E-13 Ry
     smearing contrib. (-TS)   =      -0.00045852 Ry
     internal energy E=F+TS    =   -1411.05374252 Ry

     The total energy is F=E-TS. E is the sum of the following terms:
     one-electron contribution =    -545.91210921 Ry
     hartree contribution      =     315.23710428 Ry
     xc contribution           =    -132.76691921 Ry
     ewald contribution        =    -552.53875667 Ry
     one-center paw contrib.   =    -495.07306171 Ry
      -> PAW hartree energy AE =     538.10687440 Ry
      -> PAW hartree energy PS =    -540.98005796 Ry
      -> PAW xc energy AE      =    -313.96409211 Ry
      -> PAW xc energy PS      =      83.96017150 Ry
      -> total E_H with PAW    =     312.36392072 Ry
      -> total E_XC with PAW   =    -362.77083982 Ry

     total magnetization       =    -0.00 Bohr mag/cell
     absolute magnetization    =    15.12 Bohr mag/cell

     convergence has been achieved in  24 iterations

     Forces acting on atoms (cartesian axes, Ry/au):

     atom    1 type  1   force =     0.00013565    0.00007778   -0.00006120
     atom    2 type  2   force =     0.00013590    0.00007862   -0.00006166
     atom    3 type  3   force =     0.00013559    0.00007815   -0.00006129
     atom    4 type  4   force =     0.00013535    0.00007862   -0.00006131
     atom    5 type  5   force =    -0.00013574   -0.00007835    0.00006146
     atom    6 type  5   force =    -0.00013575   -0.00007807    0.00006137
     atom    7 type  5   force =    -0.00013554   -0.00007852    0.00006140
     atom    8 type  5   force =    -0.00013545   -0.00007823    0.00006124
     The non-local contrib.  to forces
     atom    1 type  1   force =     0.00050332    0.00029130    0.00062221
     atom    2 type  2   force =     0.00050334    0.00029027    0.00062257
     atom    3 type  3   force =     0.00050372    0.00029110    0.00062204
     atom    4 type  4   force =     0.00050379    0.00029013    0.00062233
     atom    5 type  5   force =     0.00046505    0.00026821    0.00026305
     atom    6 type  5   force =     0.00046501    0.00026886    0.00026285
     atom    7 type  5   force =     0.00046512    0.00026814    0.00026303
     atom    8 type  5   force =     0.00046518    0.00026881    0.00026278
     The ionic contribution  to forces
     atom    1 type  1   force =     0.00524964    0.00299220    0.00024519
     atom    2 type  2   force =     0.00525428    0.00303517    0.00022736
     atom    3 type  3   force =     0.00522311    0.00301444    0.00025361
     atom    4 type  4   force =     0.00521702    0.00304931    0.00024510
     atom    5 type  5   force =    -0.00524222   -0.00301343   -0.00024252
     atom    6 type  5   force =    -0.00524351   -0.00302332   -0.00023788
     atom    7 type  5   force =    -0.00522960   -0.00302208   -0.00024689
     atom    8 type  5   force =    -0.00522872   -0.00303229   -0.00024398
     The local contribution  to forces
     atom    1 type  1   force =    -0.00566156   -0.00323101   -0.00085817
     atom    2 type  2   force =    -0.00566613   -0.00327284   -0.00084078
     atom    3 type  3   force =    -0.00563585   -0.00325280   -0.00086624
     atom    4 type  4   force =    -0.00562978   -0.00328665   -0.00085807
     atom    5 type  5   force =     0.00464542    0.00266921    0.00004718
     atom    6 type  5   force =     0.00464675    0.00267878    0.00004264
     atom    7 type  5   force =     0.00463299    0.00267768    0.00005150
     atom    8 type  5   force =     0.00463215    0.00268760    0.00004867
     The core correction contribution to forces
     atom    1 type  1   force =     0.00003342    0.00001906   -0.00007052
     atom    2 type  2   force =     0.00003342    0.00001939   -0.00007064
     atom    3 type  3   force =     0.00003328    0.00001914   -0.00007047
     atom    4 type  4   force =     0.00003325    0.00001943   -0.00007055
     atom    5 type  5   force =    -0.00001506   -0.00000869   -0.00000615
     atom    6 type  5   force =    -0.00001505   -0.00000870   -0.00000615
     atom    7 type  5   force =    -0.00001506   -0.00000868   -0.00000615
     atom    8 type  5   force =    -0.00001506   -0.00000870   -0.00000614
     The Hubbard contrib.    to forces
     atom    1 type  1   force =     0.00000000    0.00000000    0.00000000
     atom    2 type  2   force =     0.00000000    0.00000000    0.00000000
     atom    3 type  3   force =     0.00000000    0.00000000    0.00000000
     atom    4 type  4   force =     0.00000000    0.00000000    0.00000000
     atom    5 type  5   force =     0.00000000    0.00000000    0.00000000
     atom    6 type  5   force =     0.00000000    0.00000000    0.00000000
     atom    7 type  5   force =     0.00000000    0.00000000    0.00000000
     atom    8 type  5   force =     0.00000000    0.00000000    0.00000000
     The SCF correction term to forces
     atom    1 type  1   force =    -0.00000023   -0.00000015    0.00000020
     atom    2 type  2   force =    -0.00000006    0.00000025   -0.00000006
     atom    3 type  3   force =     0.00000027   -0.00000010   -0.00000013
     atom    4 type  4   force =     0.00000002    0.00000001   -0.00000001
     atom    5 type  5   force =     0.00000001   -0.00000003    0.00000001
     atom    6 type  5   force =     0.00000000   -0.00000007    0.00000002
     atom    7 type  5   force =    -0.00000003    0.00000003    0.00000001
     atom    8 type  5   force =    -0.00000004   -0.00000003    0.00000004

     Total force =     0.000476     Total SCF correction =     0.000001

     Computing stress (Cartesian axis) and pressure

          total   stress  (Ry/bohr**3)                   (kbar)     P=     -344.18
  -0.00233812   0.00000193   0.00000222         -343.95        0.28        0.33
   0.00000193  -0.00234035   0.00000128            0.28     -344.28        0.19
   0.00000222   0.00000128  -0.00234057            0.33        0.19     -344.31

     kinetic stress (kbar)  19639.05    -23.34     31.44
                              -23.34  19666.00     18.15
                               31.44     18.15  19651.23

     local   stress (kbar)    367.23    125.43   -215.46
                              125.43    222.40   -124.40
                             -215.46   -124.40    311.29

     nonloc. stress (kbar)  -1215.99      7.92    -10.62
                                7.92  -1225.14     -6.13
                              -10.62     -6.13  -1219.67

     hartree stress (kbar)  16868.22    -48.97     77.75
                              -48.97  16924.76     44.89
                               77.75     44.89  16891.78

     exc-cor stress (kbar)  -2994.33     -0.37      0.62
                               -0.37  -2993.90      0.36
                                0.62      0.36  -2994.13

     corecor stress (kbar)  -3363.85      0.22     -0.50
                                0.22  -3364.10     -0.29
                               -0.50     -0.29  -3364.56

     ewald   stress (kbar) -29644.27    -60.60    117.10
                              -60.60 -29574.30     67.61
                              117.10     67.61 -29620.25

     hubbard stress (kbar)      0.00      0.00      0.00
                                0.00      0.00      0.00
                                0.00      0.00      0.00

     DFT-D   stress (kbar)      0.00      0.00      0.00
                                0.00      0.00      0.00
                                0.00      0.00      0.00

     XDM     stress (kbar)      0.00      0.00      0.00
                                0.00      0.00      0.00
                                0.00      0.00      0.00

     dft-nl  stress (kbar)      0.00      0.00      0.00
                                0.00      0.00      0.00
                                0.00      0.00      0.00

     TS-vdW  stress (kbar)      0.00      0.00      0.00
                                0.00      0.00      0.00
                                0.00      0.00      0.00

     MDB     stress (kbar)      0.00      0.00      0.00
                                0.00      0.00      0.00
                                0.00      0.00      0.00

     3D-RISM stress (kbar)      0.00      0.00      0.00
                                0.00      0.00      0.00
                                0.00      0.00      0.00

     Writing all to output data dir ./temp/mns.save/ :
     XML data file, charge density, pseudopotentials, collected wavefunctions

     General routines

     Parallel routines

     PAW routines

   This run was terminated on:  13: 3:58  20Jan2025

   JOB DONE.