     Program PWSCF v.7.3.1 starts on 20Jan2025 at 11: 5: 4

     Reading input from relax.in

     Current dimensions of program PWSCF are:
     Max number of different atomic species (ntypx) = 10
     Max number of k-points (npk) =  40000
     Max angular momentum in pseudopotentials (lmaxx) =  4
     file Mn.pbe-spn-kjpaw_psl.0.3.1.UPF: wavefunction(s)  3P 3D renormalized
     file Mn.pbe-spn-kjpaw_psl.0.3.1.UPF: wavefunction(s)  3P 3D renormalized
     file Mn.pbe-spn-kjpaw_psl.0.3.1.UPF: wavefunction(s)  3P 3D renormalized
     file Mn.pbe-spn-kjpaw_psl.0.3.1.UPF: wavefunction(s)  3P 3D renormalized
     file S.pbe-n-kjpaw_psl.1.0.0.UPF: wavefunction(s)  3S 3P renormalized

     R & G space division:  proc/nbgrp/npool/nimage =       6
     Subspace diagonalization in iterative solution of the eigenvalue problem:
     a serial algorithm will be used

     Using Slab Decomposition

     bravais-lattice index     =            0
     lattice parameter (alat)  =      14.7866  a.u.
     unit-cell volume          =    1143.0296 (a.u.)^3
     number of atoms/cell      =            8
     number of atomic types    =            5
     number of electrons       =        84.00
     number of Kohn-Sham states=           50
     kinetic-energy cutoff     =      30.0000  Ry
     charge density cutoff     =     150.0000  Ry
     scf convergence threshold =      1.0E-10
     mixing beta               =       0.7000
     number of iterations used =            8  plain     mixing
     energy convergence thresh.=      1.0E-05
     force convergence thresh. =      1.0E-04
     Exchange-correlation= SLA  PW   PBX  PBC
                           (   1   4   3   4   0   0   0)
     nstep                     =           50

     celldm(1)=  14.786571  celldm(2)=   0.000000  celldm(3)=   0.000000
     celldm(4)=   0.000000  celldm(5)=   0.000000  celldm(6)=   0.000000

     crystal axes: (cart. coord. in units of alat)
               a(1) = (   1.000000   0.000000   0.000000 )
               a(2) = (   0.500000   0.866025   0.000000 )
               a(3) = (   0.250000   0.144338   0.408248 )

     reciprocal axes: (cart. coord. in units 2 pi/alat)
               b(1) = (  1.000000 -0.577350 -0.408248 )
               b(2) = (  0.000000  1.154700 -0.408248 )
               b(3) = (  0.000000  0.000000  2.449490 )

     PseudoPot. # 1 for Mn read from file:
     ./../../../pseudos/Mn.pbe-spn-kjpaw_psl.0.3.1.UPF
     MD5 check sum: ba19e6d7ccbc12830efad05ba8577d9c
     Pseudo is Projector augmented-wave + core cor, Zval = 15.0
     Generated using &quot;atomic&quot; code by A. Dal Corso  v.6.2.2
     Shape of augmentation charge: PSQ
     Using radial grid of 1187 points,  6 beta functions with:
                l(1) =   0
                l(2) =   0
                l(3) =   1
                l(4) =   1
                l(5) =   2
                l(6) =   2
     Q(r) pseudized with 0 coefficients

[...]

     PseudoPot. # 4 for Mn read from file:
     ./../../../pseudos/Mn.pbe-spn-kjpaw_psl.0.3.1.UPF
     MD5 check sum: ba19e6d7ccbc12830efad05ba8577d9c
     Pseudo is Projector augmented-wave + core cor, Zval = 15.0
     Generated using &quot;atomic&quot; code by A. Dal Corso  v.6.2.2
     Shape of augmentation charge: PSQ
     Using radial grid of 1187 points,  6 beta functions with:
                l(1) =   0
                l(2) =   0
                l(3) =   1
                l(4) =   1
                l(5) =   2
                l(6) =   2
     Q(r) pseudized with 0 coefficients

     PseudoPot. # 5 for S  read from file:
     ./../../../pseudos/S.pbe-n-kjpaw_psl.1.0.0.UPF
     MD5 check sum: fb45dfebcf3e72a4e1bd4a866ec2e262
     Pseudo is Projector augmented-wave + core cor, Zval =  6.0
     Generated using &quot;atomic&quot; code by A. Dal Corso  v.6.3
     Shape of augmentation charge: PSQ
     Using radial grid of 1151 points,  6 beta functions with:
                l(1) =   0
                l(2) =   0
                l(3) =   1
                l(4) =   1
                l(5) =   2
                l(6) =   2
     Q(r) pseudized with 0 coefficients

     atomic species   valence    mass     pseudopotential
     Mn1              15.00    54.93800     Mn( 1.00)
     Mn2              15.00    54.93800     Mn( 1.00)
     Mn3              15.00    54.93800     Mn( 1.00)
     Mn4              15.00    54.93800     Mn( 1.00)
     S                 6.00    32.06500     S ( 1.00)

     Starting magnetic structure
     atomic species   magnetization
     Mn1             0.200
     Mn2            -0.200
     Mn3            -0.200
     Mn4             0.200
     S               0.000

     No symmetry found

                                    s                        frac. trans.

      isym =  1     identity

 cryst.   s( 1) = (     1          0          0      )
                  (     0          1          0      )
                  (     0          0          1      )

 cart.    s( 1) = (  1.0000000  0.0000000  0.0000000 )
                  (  0.0000000  1.0000000  0.0000000 )
                  (  0.0000000  0.0000000  1.0000000 )

   Cartesian axes

     site n.     atom                  positions (alat units)
         1        Mn1    tau(   1) = (   0.7500000   0.4330127   0.3061862  )
         2        Mn2    tau(   2) = (   0.9999999   0.8660254   0.3061862  )
         3        Mn3    tau(   3) = (   1.2500000   0.4330127   0.3061862  )
         4        Mn4    tau(   4) = (   1.4999999   0.8660254   0.3061862  )
         5        S      tau(   5) = (   0.0000000   0.0000000   0.0000000  )
         6        S      tau(   6) = (   0.2500000   0.4330127   0.0000000  )
         7        S      tau(   7) = (   0.5000000   0.0000000   0.0000000  )
         8        S      tau(   8) = (   0.7500000   0.4330127   0.0000000  )

   Crystallographic axes

     site n.     atom                  positions (cryst. coord.)
         1        Mn1    tau(   1) = (  0.3750000  0.3750000  0.7500000  )
         2        Mn2    tau(   2) = (  0.3750000  0.8750000  0.7500000  )
         3        Mn3    tau(   3) = (  0.8750000  0.3750000  0.7500000  )
         4        Mn4    tau(   4) = (  0.8750000  0.8750000  0.7500000  )
         5        S      tau(   5) = (  0.0000000  0.0000000  0.0000000  )
         6        S      tau(   6) = (  0.0000000  0.5000000  0.0000000  )
         7        S      tau(   7) = (  0.5000000  0.0000000  0.0000000  )
         8        S      tau(   8) = (  0.5000000  0.5000000  0.0000000  )

     number of k points=    23  Gaussian smearing, width (Ry)=  0.0100
                       cart. coord. in units 2pi/alat
        k(    1) = (   0.0000000   0.0000000   0.0000000), wk =   0.0222222
        k(    2) = (   0.0000000   0.0000000   0.4898979), wk =   0.0444444
        k(    3) = (   0.0000000   0.0000000   0.9797958), wk =   0.0444444
        k(    4) = (   0.0000000   0.3849002  -0.1360827), wk =   0.0444444
        k(    5) = (   0.0000000   0.3849002   0.3538152), wk =   0.0444444
        k(    6) = (   0.0000000   0.3849002   0.8437131), wk =   0.0444444
        k(    7) = (   0.0000000   0.3849002  -1.1158786), wk =   0.0444444
        k(    8) = (   0.0000000   0.3849002  -0.6259807), wk =   0.0444444
        k(    9) = (   0.3333333   0.1924501  -0.2721655), wk =   0.0444444
        k(   10) = (   0.3333333   0.1924501   0.2177324), wk =   0.0444444
        k(   11) = (   0.3333333   0.1924501   0.7076304), wk =   0.0444444
        k(   12) = (   0.3333333   0.1924501  -1.2519613), wk =   0.0444444
        k(   13) = (   0.3333333   0.1924501  -0.7620634), wk =   0.0444444
        k(   14) = (   0.3333333  -0.5773502   0.0000000), wk =   0.0444444
        k(   15) = (   0.3333333  -0.5773502   0.4898979), wk =   0.0444444
        k(   16) = (   0.3333333  -0.5773502   0.9797959), wk =   0.0444444
        k(   17) = (  -0.3333333   0.1924501   0.1360827), wk =   0.0444444
        k(   18) = (  -0.3333333   0.1924501  -0.3538152), wk =   0.0444444
        k(   19) = (  -0.3333333   0.1924501  -0.8437131), wk =   0.0444444
        k(   20) = (  -0.3333333   0.1924501   1.1158786), wk =   0.0444444
        k(   21) = (  -0.3333333   0.1924501   0.6259807), wk =   0.0444444
        k(   22) = (   0.3333333  -0.5773502  -0.4898979), wk =   0.0444444
        k(   23) = (   0.3333333  -0.5773502  -0.9797958), wk =   0.0444444

                       cryst. coord.
        k(    1) = (   0.0000000   0.0000000   0.0000000), wk =   0.0222222
        k(    2) = (   0.0000000   0.0000000   0.2000000), wk =   0.0444444
        k(    3) = (   0.0000000   0.0000000   0.4000000), wk =   0.0444444
        k(    4) = (   0.0000000   0.3333333   0.0000000), wk =   0.0444444
        k(    5) = (   0.0000000   0.3333333   0.2000000), wk =   0.0444444
        k(    6) = (   0.0000000   0.3333333   0.4000000), wk =   0.0444444
        k(    7) = (   0.0000000   0.3333333  -0.4000000), wk =   0.0444444
        k(    8) = (   0.0000000   0.3333333  -0.2000000), wk =   0.0444444
        k(    9) = (   0.3333333   0.3333333   0.0000000), wk =   0.0444444
        k(   10) = (   0.3333333   0.3333333   0.2000000), wk =   0.0444444
        k(   11) = (   0.3333333   0.3333333   0.4000000), wk =   0.0444444
        k(   12) = (   0.3333333   0.3333333  -0.4000000), wk =   0.0444444
        k(   13) = (   0.3333333   0.3333333  -0.2000000), wk =   0.0444444
        k(   14) = (   0.3333333  -0.3333333   0.0000000), wk =   0.0444444
        k(   15) = (   0.3333333  -0.3333333   0.2000000), wk =   0.0444444
        k(   16) = (   0.3333333  -0.3333333   0.4000000), wk =   0.0444444
        k(   17) = (  -0.3333333   0.0000000  -0.0000000), wk =   0.0444444
        k(   18) = (  -0.3333333   0.0000000  -0.2000000), wk =   0.0444444
        k(   19) = (  -0.3333333   0.0000000  -0.4000000), wk =   0.0444444
        k(   20) = (  -0.3333333   0.0000000   0.4000000), wk =   0.0444444
        k(   21) = (  -0.3333333   0.0000000   0.2000000), wk =   0.0444444
        k(   22) = (   0.3333333  -0.3333333  -0.2000000), wk =   0.0444444
        k(   23) = (   0.3333333  -0.3333333  -0.4000000), wk =   0.0444444

     Check: negative core charge=   -0.000237
     Generating pointlists ...
     new r_m :   0.1263 (alat units)  1.8676 (a.u.) for type    1
     new r_m :   0.1263 (alat units)  1.8676 (a.u.) for type    2
     new r_m :   0.1263 (alat units)  1.8676 (a.u.) for type    3
     new r_m :   0.1263 (alat units)  1.8676 (a.u.) for type    4
     new r_m :   0.1263 (alat units)  1.8676 (a.u.) for type    5

     Initial potential from superposition of free atoms

     starting charge      83.9979, renormalised to      84.0000
     Starting wfcs are   56 randomized atomic wfcs
     Checking if some PAW data can be deallocated...

     Self-consistent Calculation

     iteration #  1     ecut=    30.00 Ry     beta= 0.70
     Davidson diagonalization with overlap

     ethr =  1.00E-02,  avg # of iterations =  2.0

     Threshold (ethr) on eigenvalues was too large:
     Diagonalizing with lowered threshold

     Davidson diagonalization with overlap

[...]

     total energy              =   -1411.05154449 Ry
     estimated scf accuracy    <       0.26544243 Ry

     total magnetization       =     0.00 Bohr mag/cell
     absolute magnetization    =    16.09 Bohr mag/cell

[...]

     c_bands:  1 eigenvalues not converged
     c_bands:  1 eigenvalues not converged
     ethr =  1.96E-06,  avg # of iterations = 10.8

[...]

     c_bands:  1 eigenvalues not converged
     c_bands:  1 eigenvalues not converged
     ethr =  1.96E-06,  avg # of iterations = 10.0

[...]

     total energy              =   -1411.13471536 Ry
     estimated scf accuracy    <          5.8E-10 Ry

[...]

     iteration # 17     ecut=    30.00 Ry     beta= 0.70
     Davidson diagonalization with overlap

     ethr =  6.86E-13,  avg # of iterations =  1.8

     Magnetic moment per site  (integrated on atomic sphere of radius R)
     atom   1 (R=0.126)  charge= 12.9082  magn=  3.8823
     atom   2 (R=0.126)  charge= 12.9082  magn= -3.8823
     atom   3 (R=0.126)  charge= 12.9082  magn= -3.8823
     atom   4 (R=0.126)  charge= 12.9082  magn=  3.8823
     atom   5 (R=0.126)  charge=  4.1349  magn=  0.0001
     atom   6 (R=0.126)  charge=  4.1349  magn= -0.0001
     atom   7 (R=0.126)  charge=  4.1349  magn= -0.0001
     atom   8 (R=0.126)  charge=  4.1349  magn=  0.0001

     End of self-consistent calculation

 ------ SPIN UP ------------

          k = 0.0000 0.0000 0.0000 (  3203 PWs)   bands (ev):

   -74.3990 -74.3988 -70.0222 -70.0220 -43.1493 -43.1490 -43.1090 -43.1076
   -43.1074 -43.1074 -38.8143 -38.8119 -38.8117 -38.8116 -38.7989 -38.7985
    -6.1296  -5.4448  -5.4276  -5.2127   2.1251   2.1697   2.3372   3.2514
     3.2516   3.3328   3.3670   3.3761   3.8454   3.8704   4.2087   4.2087
     4.9302   4.9533   5.0891   5.5206   5.8410   6.0976   6.6304   6.8741
     6.9024   6.9025   8.5374   8.7232   8.8226   8.9015   9.1102   9.5232
     9.5938   9.6723

     occupation numbers
     1.0000   1.0000   1.0000   1.0000   1.0000   1.0000   1.0000   1.0000
     1.0000   1.0000   1.0000   1.0000   1.0000   1.0000   1.0000   1.0000
     1.0000   1.0000   1.0000   1.0000   1.0000   1.0000   1.0000   1.0000
     1.0000   1.0000   1.0000   1.0000   1.0000   1.0000   1.0000   1.0000
     1.0000   1.0000   1.0000   1.0000   1.0000   1.0000   1.0000   1.0000
     1.0000   1.0000   0.0000   0.0000   0.0000   0.0000   0.0000   0.0000
     0.0000   0.0000

[...]

          k =-0.3333 0.1925 0.1361 (  3185 PWs)   bands (ev):

[...]

 ------ SPIN DOWN ----------

[...]

          k =-0.3333 0.1925 0.6260 (  3178 PWs)   bands (ev):

[...]

          k = 0.3333-0.5774-0.9798 (  3173 PWs)   bands (ev):

   -74.3988 -74.3987 -70.0220 -70.0219 -43.1490 -43.1489 -43.1090 -43.1089
   -43.1084 -43.1076 -38.8141 -38.8140 -38.8134 -38.8122 -38.7985 -38.7983
    -5.5419  -5.3167  -5.2899  -5.2678   2.5030   2.5611   2.7293   2.7880
     3.0515   3.1604   3.2911   3.4399   3.5867   3.7344   3.8849   3.9958
     4.8516   4.9389   5.2379   5.3578   5.5184   5.7414   5.8587   6.0389
     6.0862   6.4231   8.4937   8.5686   8.5772   8.8291   8.9973   9.0603
     9.2068   9.2570

     occupation numbers
     1.0000   1.0000   1.0000   1.0000   1.0000   1.0000   1.0000   1.0000
     1.0000   1.0000   1.0000   1.0000   1.0000   1.0000   1.0000   1.0000
     1.0000   1.0000   1.0000   1.0000   1.0000   1.0000   1.0000   1.0000
     1.0000   1.0000   1.0000   1.0000   1.0000   1.0000   1.0000   1.0000
     1.0000   1.0000   1.0000   1.0000   1.0000   1.0000   1.0000   1.0000
     1.0000   1.0000   0.0000   0.0000   0.0000   0.0000   0.0000   0.0000
     0.0000   0.0000

     the Fermi energy is     7.6423 ev

!    total energy              =   -1411.13471536 Ry
     total all-electron energy =    -12462.568330 Ry
     estimated scf accuracy    <          9.0E-11 Ry
     smearing contrib. (-TS)   =      -0.00000000 Ry
     internal energy E=F+TS    =   -1411.13471536 Ry

     The total energy is F=E-TS. E is the sum of the following terms:
     one-electron contribution =    -609.16959954 Ry
     hartree contribution      =     338.39838786 Ry
     xc contribution           =    -132.32301309 Ry
     ewald contribution        =    -513.02136846 Ry
     one-center paw contrib.   =    -495.01912213 Ry
      -> PAW hartree energy AE =     350.47254166 Ry
      -> PAW hartree energy PS =    -352.39417665 Ry
      -> PAW xc energy AE      =    -209.00769504 Ry
      -> PAW xc energy PS      =      55.68911387 Ry
      -> total E_H with PAW    =     336.47675286 Ry
      -> total E_XC with PAW   =    -285.64159427 Ry

     total magnetization       =    -0.00 Bohr mag/cell
     absolute magnetization    =    17.72 Bohr mag/cell

     convergence has been achieved in  17 iterations

     Forces acting on atoms (cartesian axes, Ry/au):

     atom    1 type  1   force =    -0.00000810   -0.00000430    0.00004785
     atom    2 type  2   force =    -0.00000872   -0.00000597    0.00004872
     atom    3 type  3   force =    -0.00000871   -0.00000397    0.00004802
     atom    4 type  4   force =    -0.00000839   -0.00000534    0.00004835
     atom    5 type  5   force =     0.00000820    0.00000583   -0.00004839
     atom    6 type  5   force =     0.00000788    0.00000447   -0.00004771
     atom    7 type  5   force =     0.00000885    0.00000512   -0.00004853
     atom    8 type  5   force =     0.00000899    0.00000415   -0.00004830
     The non-local contrib.  to forces
     atom    1 type  1   force =     0.00019729    0.00011533    0.00005261
     atom    2 type  2   force =     0.00019699    0.00011339    0.00005335
     atom    3 type  3   force =     0.00019805    0.00011474    0.00005224
     atom    4 type  4   force =     0.00019819    0.00011322    0.00005264
     atom    5 type  5   force =    -0.00012236   -0.00007063    0.00007115
     atom    6 type  5   force =    -0.00012272   -0.00007078    0.00007142
     atom    7 type  5   force =    -0.00012262   -0.00007094    0.00007149
     atom    8 type  5   force =    -0.00012225   -0.00007063    0.00007109
     The ionic contribution  to forces
     atom    1 type  1   force =    -0.00000135   -0.00000078   -0.00000055
     atom    2 type  2   force =    -0.00000135   -0.00000078   -0.00000055
     atom    3 type  3   force =    -0.00000135   -0.00000078   -0.00000055
     atom    4 type  4   force =    -0.00000135   -0.00000078   -0.00000055
     atom    5 type  5   force =     0.00000135    0.00000078    0.00000055
     atom    6 type  5   force =     0.00000135    0.00000078    0.00000055
     atom    7 type  5   force =     0.00000135    0.00000078    0.00000055
     atom    8 type  5   force =     0.00000135    0.00000078    0.00000055
     The local contribution  to forces
     atom    1 type  1   force =    -0.00020715   -0.00012260   -0.00000449
     atom    2 type  2   force =    -0.00020620   -0.00011793   -0.00000658
     atom    3 type  3   force =    -0.00020825   -0.00012141   -0.00000421
     atom    4 type  4   force =    -0.00020926   -0.00011752   -0.00000504
     atom    5 type  5   force =     0.00012627    0.00007672   -0.00011758
     atom    6 type  5   force =     0.00012457    0.00007128   -0.00011465
     atom    7 type  5   force =     0.00012735    0.00007421   -0.00011750
     atom    8 type  5   force =     0.00012867    0.00007069   -0.00011698
     The core correction contribution to forces
     atom    1 type  1   force =     0.00000326    0.00000185    0.00000101
     atom    2 type  2   force =     0.00000326    0.00000189    0.00000101
     atom    3 type  3   force =     0.00000324    0.00000186    0.00000103
     atom    4 type  4   force =     0.00000327    0.00000187    0.00000103
     atom    5 type  5   force =     0.00000329    0.00000192   -0.00000352
     atom    6 type  5   force =     0.00000329    0.00000189   -0.00000351
     atom    7 type  5   force =     0.00000330    0.00000192   -0.00000353
     atom    8 type  5   force =     0.00000329    0.00000188   -0.00000351
     The Hubbard contrib.    to forces
     atom    1 type  1   force =     0.00000000    0.00000000    0.00000000
     atom    2 type  2   force =     0.00000000    0.00000000    0.00000000
     atom    3 type  3   force =     0.00000000    0.00000000    0.00000000
     atom    4 type  4   force =     0.00000000    0.00000000    0.00000000
     atom    5 type  5   force =     0.00000000    0.00000000    0.00000000
     atom    6 type  5   force =     0.00000000    0.00000000    0.00000000
     atom    7 type  5   force =     0.00000000    0.00000000    0.00000000
     atom    8 type  5   force =     0.00000000    0.00000000    0.00000000
     The SCF correction term to forces
     atom    1 type  1   force =     0.00000029    0.00000219   -0.00000091
     atom    2 type  2   force =    -0.00000097   -0.00000225    0.00000131
     atom    3 type  3   force =     0.00000003    0.00000191   -0.00000066
     atom    4 type  4   force =     0.00000119   -0.00000184    0.00000009
     atom    5 type  5   force =     0.00000010   -0.00000267    0.00000083
     atom    6 type  5   force =     0.00000184    0.00000159   -0.00000170
     atom    7 type  5   force =    -0.00000009   -0.00000055    0.00000027
     atom    8 type  5   force =    -0.00000164    0.00000171    0.00000037

     Total force =     0.000139     Total SCF correction =     0.000007

     BFGS Geometry Optimization
     Energy error            =      0.0E+00 Ry
     Gradient error          =      4.9E-05 Ry/Bohr

     bfgs converged in   1 scf cycles and   0 bfgs steps
     (criteria: energy <  1.0E-05 Ry, force <  1.0E-04 Ry/Bohr)

     End of BFGS Geometry Optimization

     Final energy             =   -1411.1347153634 Ry
Begin final coordinates

ATOMIC_POSITIONS (crystal)
Mn1              0.3750000000        0.3750000000        0.7500000000
Mn2              0.3750000000        0.8750000000        0.7500000000
Mn3              0.8750000000        0.3750000000        0.7500000000
Mn4              0.8750000000        0.8750000000        0.7500000000
S                0.0000000000        0.0000000000        0.0000000000
S                0.0000000000        0.5000000000        0.0000000000
S                0.5000000000        0.0000000000        0.0000000000
S                0.5000000000        0.5000000000        0.0000000000
End final coordinates

     Writing all to output data dir ./temp/mns.save/ :
     XML data file, charge density, pseudopotentials, collected wavefunctions

     General routines

     Parallel routines

     PAW routines

   This run was terminated on:  11: 7:50  20Jan2025

   JOB DONE.