     Program PWSCF v.7.3.1 starts on 21Dec2024 at 19:59: 3

     Reading input from vc_relax.in

     Current dimensions of program PWSCF are:
     Max number of different atomic species (ntypx) = 10
     Max number of k-points (npk) =  40000
     Max angular momentum in pseudopotentials (lmaxx) =  4
     file Si.pbesol-n-kjpaw_psl.1.0.0.UPF: wavefunction(s)  3S 3P renormalized

     R & G space division:  proc/nbgrp/npool/nimage =       8
     Subspace diagonalization in iterative solution of the eigenvalue problem:
     a serial algorithm will be used

     Using Slab Decomposition

     bravais-lattice index     =           -5
     lattice parameter (alat)  =       7.2754  a.u.
     unit-cell volume          =     272.3101 (a.u.)^3
     number of atoms/cell      =            2
     number of atomic types    =            1
     number of electrons       =         8.00
     number of Kohn-Sham states=            8
     kinetic-energy cutoff     =      40.0000  Ry
     charge density cutoff     =     160.0000  Ry
     scf convergence threshold =      1.0E-08
     mixing beta               =       0.7000
     number of iterations used =            8  plain     mixing
     energy convergence thresh.=      1.0E-06
     force convergence thresh. =      1.0E-05
     press convergence thresh. =      5.0E-01
     Exchange-correlation= SLA  PW   PSX  PSC
                           (   1   4  10   8   0   0   0)
     nstep                     =           50

     celldm(1)=   7.275446  celldm(2)=   0.000000  celldm(3)=   0.000000
     celldm(4)=   0.500000  celldm(5)=   0.000000  celldm(6)=   0.000000

     crystal axes: (cart. coord. in units of alat)
               a(1) = (   0.000000   0.707107   0.707107 )
               a(2) = (   0.707107   0.000000   0.707107 )
               a(3) = (   0.707107   0.707107   0.000000 )

     reciprocal axes: (cart. coord. in units 2 pi/alat)
               b(1) = ( -0.707107  0.707107  0.707107 )
               b(2) = (  0.707107 -0.707107  0.707107 )
               b(3) = (  0.707107  0.707107 -0.707107 )

     PseudoPot. # 1 for Si read from file:
     ./../../pseudos/Si.pbesol-n-kjpaw_psl.1.0.0.UPF
     MD5 check sum: 9fbd692c527d147d9ad0870b71777ff4
     Pseudo is Projector augmented-wave + core cor, Zval =  4.0
     Generated using &quot;atomic&quot; code by A. Dal Corso  v.6.3
     Shape of augmentation charge: PSQ
     Using radial grid of 1141 points,  6 beta functions with:
                l(1) =   0
                l(2) =   0
                l(3) =   1
                l(4) =   1
                l(5) =   2
                l(6) =   2
     Q(r) pseudized with 0 coefficients

     atomic species   valence    mass     pseudopotential
     Si                4.00    28.08550     Si( 1.00)

     48 Sym. Ops., with inversion, found (24 have fractional translation)

   Cartesian axes

     site n.     atom                  positions (alat units)
         1        Si     tau(   1) = (   1.0606602   1.0606602   1.0606602  )
         2        Si     tau(   2) = (   0.7071068   0.7071068   0.7071068  )

     number of k points=    16  Gaussian smearing, width (Ry)=  0.0010
                       cart. coord. in units 2pi/alat
        k(    1) = (   0.0000000   0.0000000   0.0000000), wk =   0.0092593
        k(    2) = (   0.1178511   0.1178511  -0.1178511), wk =   0.0740741
        k(    3) = (   0.2357023   0.2357023  -0.2357023), wk =   0.0740741
        k(    4) = (  -0.3535534  -0.3535534   0.3535534), wk =   0.0370370
        k(    5) = (   0.2357023   0.0000000   0.0000000), wk =   0.0555556
        k(    6) = (   0.3535534   0.1178511  -0.1178511), wk =   0.2222222
        k(    7) = (  -0.2357023  -0.4714045   0.4714045), wk =   0.2222222
        k(    8) = (  -0.1178511  -0.3535534   0.3535534), wk =   0.2222222
        k(    9) = (   0.0000000  -0.2357023   0.2357023), wk =   0.1111111
        k(   10) = (   0.4714045   0.0000000   0.0000000), wk =   0.0555556
        k(   11) = (  -0.1178511  -0.5892557   0.5892557), wk =   0.2222222
        k(   12) = (  -0.0000000  -0.4714045   0.4714045), wk =   0.1111111
        k(   13) = (  -0.7071068   0.0000000   0.0000000), wk =   0.0277778
        k(   14) = (  -0.2357023  -0.4714045   0.7071068), wk =   0.2222222
        k(   15) = (  -0.1178511  -0.3535534   0.5892557), wk =   0.2222222
        k(   16) = (  -0.7071068   0.2357023   0.0000000), wk =   0.1111111

     Check: negative core charge=   -0.000003

     Initial potential from superposition of free atoms

     starting charge       7.9989, renormalised to       8.0000
     Starting wfcs are    8 randomized atomic wfcs
     Checking if some PAW data can be deallocated...

     Self-consistent Calculation

     iteration #  1     ecut=    40.00 Ry     beta= 0.70
     Davidson diagonalization with overlap
     ethr =  1.00E-02,  avg # of iterations =  3.6

     Threshold (ethr) on eigenvalues was too large:
     Diagonalizing with lowered threshold

     Davidson diagonalization with overlap
     ethr =  6.35E-04,  avg # of iterations =  2.1

     total energy              =     -91.27219774 Ry
     estimated scf accuracy    <       0.05492724 Ry

[...]

     End of self-consistent calculation

          k = 0.0000 0.0000 0.0000 (  1211 PWs)   bands (ev):

    -5.8563   6.0822   6.0822   6.0822   8.5985   8.5985   8.5985   9.3047

[...]

          k =-0.3536-0.3536 0.3536 (  1170 PWs)   bands (ev):

[...]

     the Fermi energy is     6.4957 ev

!    total energy              =     -91.27514799 Ry
     total all-electron energy =     -1158.039377 Ry
     estimated scf accuracy    <          5.5E-10 Ry
     smearing contrib. (-TS)   =      -0.00000000 Ry
     internal energy E=F+TS    =     -91.27514799 Ry

     The total energy is F=E-TS. E is the sum of the following terms:
     one-electron contribution =       5.68591974 Ry
     hartree contribution      =       1.09102572 Ry
     xc contribution           =     -12.13051427 Ry
     ewald contribution        =     -16.75352039 Ry
     one-center paw contrib.   =     -69.16805879 Ry

     convergence has been achieved in   6 iterations

     Forces acting on atoms (cartesian axes, Ry/au):

     atom    1 type  1   force =     0.00000000    0.00000000    0.00000000
     atom    2 type  1   force =     0.00000000    0.00000000    0.00000000

     Total force =     0.000000     Total SCF correction =     0.000000

     Computing stress (Cartesian axis) and pressure

          total   stress  (Ry/bohr**3)                   (kbar)     P=       -5.68
  -0.00003858  -0.00000000   0.00000000           -5.68       -0.00        0.00
  -0.00000000  -0.00003858  -0.00000000           -0.00       -5.68       -0.00
   0.00000000  -0.00000000  -0.00003858            0.00       -0.00       -5.68

     BFGS Geometry Optimization
     Energy error            =      0.0E+00 Ry
     Gradient error          =      0.0E+00 Ry/Bohr
     Cell gradient error     =      5.7E+00 kbar

     number of scf cycles    =   1
     number of bfgs steps    =   0

     enthalpy           new  =     -91.2751479894 Ry

     new trust radius        =       0.0031835129 bohr
ibrav =     -5
 celldm(1) =      7.26842773
 celldm(4) =      0.50000000
Input lattice vectors:
     0.00000000     0.70642471     0.70642471
     0.70642471    -0.00000000     0.70642471
     0.70642471     0.70642471    -0.00000000
New lattice vectors in INITIAL alat:
     0.00000000     0.70642471     0.70642471
     0.70642471     0.00000000     0.70642471
     0.70642471     0.70642471     0.00000000
New lattice vectors in NEW alat (for information only):
     0.00000000     0.70710678     0.70710678
     0.70710678     0.00000000     0.70710678
     0.70710678     0.70710678     0.00000000
Discrepancy in bohr =     0.000000    0.000000    0.000000
     new conv_thr            =       0.0000000100 Ry

     new unit-cell volume =    271.52288 a.u.^3 (    40.23554 Ang^3 )
     density =      2.31820 g/cm^3

CELL_PARAMETERS (alat=  7.27544558)
   0.000000000   0.706424710   0.706424710
   0.706424710   0.000000000   0.706424710
   0.706424710   0.706424710   0.000000000

ATOMIC_POSITIONS (crystal)
Si               0.7500000000        0.7500000000        0.7500000000
Si               0.5000000000        0.5000000000        0.5000000000

     Writing config-only to output data dir ./temp/silicon.save/ :
     XML data file
     NEW-OLD atomic charge density approx. for the potential

[...]

     Energy error            =      2.3E-05 Ry
     Gradient error          =      9.3E-32 Ry/Bohr
     Cell gradient error     =      3.0E+00 kbar

[...]

     enthalpy           old  =     -91.2751479894 Ry
     enthalpy           new  =     -91.2751712308 Ry

     CASE: enthalpy          _new < enthalpy          _old

[...]

     Energy error            =      8.9E-06 Ry
     Gradient error          =      1.7E-32 Ry/Bohr
     Cell gradient error     =      2.5E-02 kbar

     number of scf cycles    =   3
     number of bfgs steps    =   2

     enthalpy           old  =     -91.2751712308 Ry
     enthalpy           new  =     -91.2751800908 Ry

     CASE: enthalpy          _new < enthalpy          _old

     small trust_radius: resetting bfgs history

     new trust radius        =       0.0000137376 bohr
ibrav =     -5
 celldm(1) =      7.26072323
 celldm(4) =      0.50000000
Input lattice vectors:
     0.00000000     0.70567590     0.70567590
     0.70567590     0.00000000     0.70567590
     0.70567590     0.70567590     0.00000000
New lattice vectors in INITIAL alat:
     0.00000000     0.70567590     0.70567590
     0.70567590     0.00000000     0.70567590
     0.70567590     0.70567590     0.00000000
New lattice vectors in NEW alat (for information only):
     0.00000000     0.70710678     0.70710678
     0.70710678     0.00000000     0.70710678
     0.70710678     0.70710678     0.00000000
Discrepancy in bohr =     0.000000    0.000000    0.000000
     new conv_thr            =            1.0E-10 Ry

     new unit-cell volume =    270.66036 a.u.^3 (    40.10773 Ang^3 )
     density =      2.32559 g/cm^3

[...]

ATOMIC_POSITIONS (crystal)
Si               0.7500000000        0.7500000000        0.7500000000
Si               0.5000000000        0.5000000000        0.5000000000

     Writing config-only to output data dir ./temp/silicon.save/ :
     XML data file
     NEW-OLD atomic charge density approx. for the potential

[...]

     Threshold (ethr) on eigenvalues was too large:
     Diagonalizing with lowered threshold

     Davidson diagonalization with overlap
     ethr =  7.33E-14,  avg # of iterations =  4.2

[...]

     Energy error            =      4.3E-10 Ry
     Gradient error          =      0.0E+00 Ry/Bohr
     Cell gradient error     =      1.3E-02 kbar
ibrav =     -5
 celldm(1) =      7.26072323
 celldm(4) =      0.50000000
Input lattice vectors:
     0.00000000     0.70567590     0.70567590
     0.70567590     0.00000000     0.70567590
     0.70567590     0.70567590     0.00000000
New lattice vectors in INITIAL alat:
     0.00000000     0.70567590     0.70567590
     0.70567590     0.00000000     0.70567590
     0.70567590     0.70567590     0.00000000
New lattice vectors in NEW alat (for information only):
     0.00000000     0.70710678     0.70710678
     0.70710678     0.00000000     0.70710678
     0.70710678     0.70710678     0.00000000
Discrepancy in bohr =     0.000000    0.000000    0.000000

     bfgs converged in   4 scf cycles and   3 bfgs steps
     (criteria: energy <  1.0E-06 Ry, force <  1.0E-05 Ry/Bohr, cell <  5.0E-01 kbar)

     End of BFGS Geometry Optimization

     Final enthalpy           =     -91.2751800912 Ry

     File ./temp/silicon.bfgs deleted, as requested
Begin final coordinates
     new unit-cell volume =    270.66036 a.u.^3 (    40.10773 Ang^3 )
     density =      2.32559 g/cm^3

CELL_PARAMETERS (alat=  7.27544558)
   0.000000000   0.705675904   0.705675904
   0.705675904   0.000000000   0.705675904
   0.705675904   0.705675904   0.000000000

ATOMIC_POSITIONS (crystal)
Si               0.7500000000        0.7500000000        0.7500000000
Si               0.5000000000        0.5000000000        0.5000000000
End final coordinates

     Writing config-only to output data dir ./temp/silicon.save/ :
     XML data file

     Final scf calculation at the relaxed structure.
     The G-vectors are recalculated for the final unit cell
     Results may differ from those at the preceding step.

     Using Slab Decomposition

     bravais-lattice index     =           -5
     lattice parameter (alat)  =       7.2754  a.u.
     unit-cell volume          =     270.6604 (a.u.)^3
     number of atoms/cell      =            2
     number of atomic types    =            1
     number of electrons       =         8.00
     number of Kohn-Sham states=            8
     kinetic-energy cutoff     =      40.0000  Ry
     charge density cutoff     =     160.0000  Ry
     scf convergence threshold =      1.0E-10
     mixing beta               =       0.7000
     number of iterations used =            8  plain     mixing
     press convergence thresh. =      5.0E-01
     Exchange-correlation= SLA  PW   PSX  PSC
                           (   1   4  10   8   0   0   0)

     celldm(1)=   7.275446  celldm(2)=   0.000000  celldm(3)=   0.000000
     celldm(4)=   0.500000  celldm(5)=   0.000000  celldm(6)=   0.000000

     crystal axes: (cart. coord. in units of alat)
               a(1) = (   0.000000   0.705676   0.705676 )
               a(2) = (   0.705676   0.000000   0.705676 )
               a(3) = (   0.705676   0.705676   0.000000 )

     reciprocal axes: (cart. coord. in units 2 pi/alat)
               b(1) = ( -0.708541  0.708541  0.708541 )
               b(2) = (  0.708541 -0.708541  0.708541 )
               b(3) = (  0.708541  0.708541 -0.708541 )

     PseudoPot. # 1 for Si read from file:
     ./../../pseudos/Si.pbesol-n-kjpaw_psl.1.0.0.UPF
     MD5 check sum: 9fbd692c527d147d9ad0870b71777ff4
     Pseudo is Projector augmented-wave + core cor, Zval =  4.0
     Generated using &quot;atomic&quot; code by A. Dal Corso  v.6.3
     Shape of augmentation charge: PSQ
     Using radial grid of 1141 points,  6 beta functions with:
                l(1) =   0
                l(2) =   0
                l(3) =   1
                l(4) =   1
                l(5) =   2
                l(6) =   2
     Q(r) pseudized with 0 coefficients

     atomic species   valence    mass     pseudopotential
     Si                4.00    28.08550     Si( 1.00)

     48 Sym. Ops., with inversion, found (24 have fractional translation)

   Cartesian axes

     site n.     atom                  positions (alat units)
         1        Si     tau(   1) = (   1.0585139   1.0585139   1.0585139  )
         2        Si     tau(   2) = (   0.7056759   0.7056759   0.7056759  )

     number of k points=    16  Gaussian smearing, width (Ry)=  0.0010
                       cart. coord. in units 2pi/alat
        k(    1) = (   0.0000000   0.0000000   0.0000000), wk =   0.0092593
        k(    2) = (   0.1180901   0.1180901  -0.1180901), wk =   0.0740741
        k(    3) = (   0.2361802   0.2361802  -0.2361802), wk =   0.0740741
        k(    4) = (  -0.3542703  -0.3542703   0.3542703), wk =   0.0370370
        k(    5) = (   0.2361802  -0.0000000  -0.0000000), wk =   0.0555556
        k(    6) = (   0.3542703   0.1180901  -0.1180901), wk =   0.2222222
        k(    7) = (  -0.2361802  -0.4723604   0.4723604), wk =   0.2222222
        k(    8) = (  -0.1180901  -0.3542703   0.3542703), wk =   0.2222222
        k(    9) = (   0.0000000  -0.2361802   0.2361802), wk =   0.1111111
        k(   10) = (   0.4723604  -0.0000000  -0.0000000), wk =   0.0555556
        k(   11) = (  -0.1180901  -0.5904505   0.5904505), wk =   0.2222222
        k(   12) = (  -0.0000000  -0.4723604   0.4723604), wk =   0.1111111
        k(   13) = (  -0.7085406   0.0000000   0.0000000), wk =   0.0277778
        k(   14) = (  -0.2361802  -0.4723604   0.7085406), wk =   0.2222222
        k(   15) = (  -0.1180901  -0.3542703   0.5904505), wk =   0.2222222
        k(   16) = (  -0.7085406   0.2361802  -0.0000000), wk =   0.1111111

     Check: negative core charge=   -0.000003

     Initial potential from superposition of free atoms

     starting charge       7.9989, renormalised to       8.0000
     Starting wfcs are    8 randomized atomic wfcs
     Checking if some PAW data can be deallocated...

     Self-consistent Calculation

     iteration #  1     ecut=    40.00 Ry     beta= 0.70
     Davidson diagonalization with overlap
     c_bands:  1 eigenvalues not converged
     c_bands:  2 eigenvalues not converged
     ethr =  1.00E-06,  avg # of iterations = 15.4

[...]

     total energy              =     -91.27517782 Ry
     estimated scf accuracy    <          7.5E-10 Ry

     iteration #  8     ecut=    40.00 Ry     beta= 0.70
     Davidson diagonalization with overlap
     ethr =  9.40E-12,  avg # of iterations =  1.5

     End of self-consistent calculation

[...]

          k = 0.4724-0.0000-0.0000 (  1150 PWs)   bands (ev):

[...]

          k =-0.7085 0.2362-0.0000 (  1166 PWs)   bands (ev):

    -1.5579  -1.5579   2.4568   2.4568   8.8056   8.8056  12.8419  12.8419

     the Fermi energy is     6.5700 ev

!    total energy              =     -91.27517782 Ry
     total all-electron energy =     -1158.039407 Ry
     estimated scf accuracy    <          3.6E-11 Ry
     smearing contrib. (-TS)   =      -0.00000000 Ry
     internal energy E=F+TS    =     -91.27517782 Ry

     The total energy is F=E-TS. E is the sum of the following terms:
     one-electron contribution =       5.73380437 Ry
     hartree contribution      =       1.08573182 Ry
     xc contribution           =     -12.13813738 Ry
     ewald contribution        =     -16.78749099 Ry
     one-center paw contrib.   =     -69.16908565 Ry

     convergence has been achieved in   8 iterations

     Forces acting on atoms (cartesian axes, Ry/au):

     atom    1 type  1   force =    -0.00000000   -0.00000000   -0.00000000
     atom    2 type  1   force =    -0.00000000   -0.00000000   -0.00000000

     Total force =     0.000000     Total SCF correction =     0.000000

     Computing stress (Cartesian axis) and pressure

          total   stress  (Ry/bohr**3)                   (kbar)     P=       -0.01
  -0.00000008  -0.00000000   0.00000000           -0.01       -0.00        0.00
   0.00000000  -0.00000008  -0.00000000            0.00       -0.01       -0.00
  -0.00000000  -0.00000000  -0.00000008           -0.00       -0.00       -0.01

     Writing all to output data dir ./temp/silicon.save/ :
     XML data file, charge density, pseudopotentials, collected wavefunctions

     General routines

     Parallel routines

   This run was terminated on:  19:59:10  21Dec2024

   JOB DONE.