     Program PWSCF v.7.3.1 starts on 31Jan2025 at 19:22:56

     Reading input from relax.in

     Current dimensions of program PWSCF are:
     Max number of different atomic species (ntypx) = 10
     Max number of k-points (npk) =  40000
     Max angular momentum in pseudopotentials (lmaxx) =  4
     file Mn.pbe-spn-kjpaw_psl.0.3.1.UPF: wavefunction(s)  3P 3D renormalized
     file Mn.pbe-spn-kjpaw_psl.0.3.1.UPF: wavefunction(s)  3P 3D renormalized
     file Mn.pbe-spn-kjpaw_psl.0.3.1.UPF: wavefunction(s)  3P 3D renormalized
     file Mn.pbe-spn-kjpaw_psl.0.3.1.UPF: wavefunction(s)  3P 3D renormalized
     file S.pbe-n-kjpaw_psl.1.0.0.UPF: wavefunction(s)  3S 3P renormalized

     R & G space division:  proc/nbgrp/npool/nimage =       6
     Subspace diagonalization in iterative solution of the eigenvalue problem:
     a serial algorithm will be used

     Using Slab Decomposition

     bravais-lattice index     =            0
     lattice parameter (alat)  =      14.7866  a.u.
     unit-cell volume          =    1143.0296 (a.u.)^3
     number of atoms/cell      =            8
     number of atomic types    =            5
     number of electrons       =        84.00
     number of Kohn-Sham states=           50
     kinetic-energy cutoff     =      30.0000  Ry
     charge density cutoff     =     150.0000  Ry
     scf convergence threshold =      1.0E-10
     mixing beta               =       0.7000
     number of iterations used =            8  plain     mixing
     energy convergence thresh.=      1.0E-05
     force convergence thresh. =      1.0E-04
     Exchange-correlation= SLA  PW   PBX  PBC
                           (   1   4   3   4   0   0   0)
     nstep                     =           50

     celldm(1)=  14.786571  celldm(2)=   0.000000  celldm(3)=   0.000000
     celldm(4)=   0.000000  celldm(5)=   0.000000  celldm(6)=   0.000000

     crystal axes: (cart. coord. in units of alat)
               a(1) = (   1.000000   0.000000   0.000000 )
               a(2) = (   0.500000   0.866025   0.000000 )
               a(3) = (   0.250000   0.144338   0.408248 )

     reciprocal axes: (cart. coord. in units 2 pi/alat)
               b(1) = (  1.000000 -0.577350 -0.408248 )
               b(2) = (  0.000000  1.154700 -0.408248 )
               b(3) = (  0.000000  0.000000  2.449490 )

     PseudoPot. # 1 for Mn read from file:
     ./../../../pseudos/Mn.pbe-spn-kjpaw_psl.0.3.1.UPF
     MD5 check sum: ba19e6d7ccbc12830efad05ba8577d9c
     Pseudo is Projector augmented-wave + core cor, Zval = 15.0
     Generated using &quot;atomic&quot; code by A. Dal Corso  v.6.2.2
     Shape of augmentation charge: PSQ
     Using radial grid of 1187 points,  6 beta functions with:
                l(1) =   0
                l(2) =   0
                l(3) =   1
                l(4) =   1
                l(5) =   2
                l(6) =   2
     Q(r) pseudized with 0 coefficients

[...]

     PseudoPot. # 4 for Mn read from file:
     ./../../../pseudos/Mn.pbe-spn-kjpaw_psl.0.3.1.UPF
     MD5 check sum: ba19e6d7ccbc12830efad05ba8577d9c
     Pseudo is Projector augmented-wave + core cor, Zval = 15.0
     Generated using &quot;atomic&quot; code by A. Dal Corso  v.6.2.2
     Shape of augmentation charge: PSQ
     Using radial grid of 1187 points,  6 beta functions with:
                l(1) =   0
                l(2) =   0
                l(3) =   1
                l(4) =   1
                l(5) =   2
                l(6) =   2
     Q(r) pseudized with 0 coefficients

     PseudoPot. # 5 for S  read from file:
     ./../../../pseudos/S.pbe-n-kjpaw_psl.1.0.0.UPF
     MD5 check sum: fb45dfebcf3e72a4e1bd4a866ec2e262
     Pseudo is Projector augmented-wave + core cor, Zval =  6.0
     Generated using &quot;atomic&quot; code by A. Dal Corso  v.6.3
     Shape of augmentation charge: PSQ
     Using radial grid of 1151 points,  6 beta functions with:
                l(1) =   0
                l(2) =   0
                l(3) =   1
                l(4) =   1
                l(5) =   2
                l(6) =   2
     Q(r) pseudized with 0 coefficients

     atomic species   valence    mass     pseudopotential
     Mn1              15.00    54.93800     Mn( 1.00)
     Mn2              15.00    54.93800     Mn( 1.00)
     Mn3              15.00    54.93800     Mn( 1.00)
     Mn4              15.00    54.93800     Mn( 1.00)
     S                 6.00    32.06500     S ( 1.00)

     No symmetry found

                                    s                        frac. trans.

      isym =  1     identity

 cryst.   s( 1) = (     1          0          0      )
                  (     0          1          0      )
                  (     0          0          1      )

 cart.    s( 1) = (  1.0000000  0.0000000  0.0000000 )
                  (  0.0000000  1.0000000  0.0000000 )
                  (  0.0000000  0.0000000  1.0000000 )

   Cartesian axes

     site n.     atom                  positions (alat units)
         1        Mn1    tau(   1) = (   0.7500000   0.4330127   0.3061862  )
         2        Mn2    tau(   2) = (   0.9999999   0.8660254   0.3061862  )
         3        Mn3    tau(   3) = (   1.2500000   0.4330127   0.3061862  )
         4        Mn4    tau(   4) = (   1.4999999   0.8660254   0.3061862  )
         5        S      tau(   5) = (   0.0000000   0.0000000   0.0000000  )
         6        S      tau(   6) = (   0.2500000   0.4330127   0.0000000  )
         7        S      tau(   7) = (   0.5000000   0.0000000   0.0000000  )
         8        S      tau(   8) = (   0.7500000   0.4330127   0.0000000  )

   Crystallographic axes

     site n.     atom                  positions (cryst. coord.)
         1        Mn1    tau(   1) = (  0.3750000  0.3750000  0.7500000  )
         2        Mn2    tau(   2) = (  0.3750000  0.8750000  0.7500000  )
         3        Mn3    tau(   3) = (  0.8750000  0.3750000  0.7500000  )
         4        Mn4    tau(   4) = (  0.8750000  0.8750000  0.7500000  )
         5        S      tau(   5) = (  0.0000000  0.0000000  0.0000000  )
         6        S      tau(   6) = (  0.0000000  0.5000000  0.0000000  )
         7        S      tau(   7) = (  0.5000000  0.0000000  0.0000000  )
         8        S      tau(   8) = (  0.5000000  0.5000000  0.0000000  )

     number of k points=    23  Gaussian smearing, width (Ry)=  0.0100
                       cart. coord. in units 2pi/alat
        k(    1) = (   0.0000000   0.0000000   0.0000000), wk =   0.0444444
        k(    2) = (   0.0000000   0.0000000   0.4898979), wk =   0.0888889
        k(    3) = (   0.0000000   0.0000000   0.9797958), wk =   0.0888889
        k(    4) = (   0.0000000   0.3849002  -0.1360827), wk =   0.0888889
        k(    5) = (   0.0000000   0.3849002   0.3538152), wk =   0.0888889
        k(    6) = (   0.0000000   0.3849002   0.8437131), wk =   0.0888889
        k(    7) = (   0.0000000   0.3849002  -1.1158786), wk =   0.0888889
        k(    8) = (   0.0000000   0.3849002  -0.6259807), wk =   0.0888889
        k(    9) = (   0.3333333   0.1924501  -0.2721655), wk =   0.0888889
        k(   10) = (   0.3333333   0.1924501   0.2177324), wk =   0.0888889
        k(   11) = (   0.3333333   0.1924501   0.7076304), wk =   0.0888889
        k(   12) = (   0.3333333   0.1924501  -1.2519613), wk =   0.0888889
        k(   13) = (   0.3333333   0.1924501  -0.7620634), wk =   0.0888889
        k(   14) = (   0.3333333  -0.5773502   0.0000000), wk =   0.0888889
        k(   15) = (   0.3333333  -0.5773502   0.4898979), wk =   0.0888889
        k(   16) = (   0.3333333  -0.5773502   0.9797959), wk =   0.0888889
        k(   17) = (  -0.3333333   0.1924501   0.1360827), wk =   0.0888889
        k(   18) = (  -0.3333333   0.1924501  -0.3538152), wk =   0.0888889
        k(   19) = (  -0.3333333   0.1924501  -0.8437131), wk =   0.0888889
        k(   20) = (  -0.3333333   0.1924501   1.1158786), wk =   0.0888889
        k(   21) = (  -0.3333333   0.1924501   0.6259807), wk =   0.0888889
        k(   22) = (   0.3333333  -0.5773502  -0.4898979), wk =   0.0888889
        k(   23) = (   0.3333333  -0.5773502  -0.9797958), wk =   0.0888889

                       cryst. coord.
        k(    1) = (   0.0000000   0.0000000   0.0000000), wk =   0.0444444
        k(    2) = (   0.0000000   0.0000000   0.2000000), wk =   0.0888889
        k(    3) = (   0.0000000   0.0000000   0.4000000), wk =   0.0888889
        k(    4) = (   0.0000000   0.3333333   0.0000000), wk =   0.0888889
        k(    5) = (   0.0000000   0.3333333   0.2000000), wk =   0.0888889
        k(    6) = (   0.0000000   0.3333333   0.4000000), wk =   0.0888889
        k(    7) = (   0.0000000   0.3333333  -0.4000000), wk =   0.0888889
        k(    8) = (   0.0000000   0.3333333  -0.2000000), wk =   0.0888889
        k(    9) = (   0.3333333   0.3333333   0.0000000), wk =   0.0888889
        k(   10) = (   0.3333333   0.3333333   0.2000000), wk =   0.0888889
        k(   11) = (   0.3333333   0.3333333   0.4000000), wk =   0.0888889
        k(   12) = (   0.3333333   0.3333333  -0.4000000), wk =   0.0888889
        k(   13) = (   0.3333333   0.3333333  -0.2000000), wk =   0.0888889
        k(   14) = (   0.3333333  -0.3333333   0.0000000), wk =   0.0888889
        k(   15) = (   0.3333333  -0.3333333   0.2000000), wk =   0.0888889
        k(   16) = (   0.3333333  -0.3333333   0.4000000), wk =   0.0888889
        k(   17) = (  -0.3333333   0.0000000  -0.0000000), wk =   0.0888889
        k(   18) = (  -0.3333333   0.0000000  -0.2000000), wk =   0.0888889
        k(   19) = (  -0.3333333   0.0000000  -0.4000000), wk =   0.0888889
        k(   20) = (  -0.3333333   0.0000000   0.4000000), wk =   0.0888889
        k(   21) = (  -0.3333333   0.0000000   0.2000000), wk =   0.0888889
        k(   22) = (   0.3333333  -0.3333333  -0.2000000), wk =   0.0888889
        k(   23) = (   0.3333333  -0.3333333  -0.4000000), wk =   0.0888889

     Check: negative core charge=   -0.000237

     Initial potential from superposition of free atoms

     starting charge      83.9979, renormalised to      84.0000
     Starting wfcs are   56 randomized atomic wfcs
     Checking if some PAW data can be deallocated...

     Self-consistent Calculation

     iteration #  1     ecut=    30.00 Ry     beta= 0.70
     Davidson diagonalization with overlap

     ethr =  1.00E-02,  avg # of iterations =  2.0

     Threshold (ethr) on eigenvalues was too large:
     Diagonalizing with lowered threshold

     Davidson diagonalization with overlap

[...]

     total energy              =   -1410.59192758 Ry
     estimated scf accuracy    <       0.26410832 Ry

[...]

     End of self-consistent calculation

          k = 0.0000 0.0000 0.0000 (  3203 PWs)   bands (ev):

   -72.2472 -72.2466 -72.2466 -72.2465 -40.9975 -40.9963 -40.9963 -40.9956
   -40.9855 -40.9855 -40.9850 -40.9833 -40.9823 -40.9823 -40.9821 -40.9819
    -6.5667  -5.9171  -5.9171  -5.7080   1.9984   1.9984   2.0049   3.5056
     3.5085   3.5104   3.6610   3.6610   3.6616   3.6616   3.7441   3.7469
     6.2721   6.6721   6.6741   6.8463   6.8463   6.8525   6.8525   6.9320
[...]
     estimated scf accuracy    <          6.7E-11 Ry
     smearing contrib. (-TS)   =      -0.00975130 Ry
     internal energy E=F+TS    =   -1410.63632808 Ry

     The total energy is F=E-TS. E is the sum of the following terms:
     one-electron contribution =    -610.22279638 Ry
     hartree contribution      =     338.06605200 Ry
     xc contribution           =    -130.68917858 Ry
     ewald contribution        =    -513.02136846 Ry
     one-center paw contrib.   =    -494.76903666 Ry
      -> PAW hartree energy AE =     354.24332169 Ry
      -> PAW hartree energy PS =    -356.06635003 Ry
      -> PAW xc energy AE      =    -208.46298694 Ry
      -> PAW xc energy PS      =      55.13283097 Ry
      -> total E_H with PAW    =     336.24302366 Ry
      -> total E_XC with PAW   =    -284.01933455 Ry

     convergence has been achieved in  27 iterations

     Forces acting on atoms (cartesian axes, Ry/au):

     atom    1 type  1   force =    -0.00094835   -0.00054796    0.00242613
     atom    2 type  2   force =    -0.00094795   -0.00054657    0.00242533
     atom    3 type  3   force =    -0.00094766   -0.00054796    0.00242566
     atom    4 type  4   force =    -0.00094802   -0.00054681    0.00242552
     atom    5 type  5   force =     0.00094774    0.00054702   -0.00242538
     atom    6 type  5   force =     0.00094844    0.00054747   -0.00242601
     atom    7 type  5   force =     0.00094826    0.00054753   -0.00242590
     atom    8 type  5   force =     0.00094755    0.00054727   -0.00242535
     The non-local contrib.  to forces
     atom    1 type  1   force =     0.00022021    0.00012694   -0.00021079
     atom    2 type  2   force =     0.00022024    0.00012748   -0.00021102
     atom    3 type  3   force =     0.00022040    0.00012693   -0.00021091
     atom    4 type  4   force =     0.00022037    0.00012741   -0.00021104
     atom    5 type  5   force =    -0.00017392   -0.00010073    0.00035044
     atom    6 type  5   force =    -0.00017299   -0.00009975    0.00034955
     atom    7 type  5   force =    -0.00017313   -0.00010011    0.00034976
     atom    8 type  5   force =    -0.00017413   -0.00010018    0.00035034
     The ionic contribution  to forces
     atom    1 type  1   force =    -0.00000135   -0.00000078   -0.00000055
     atom    2 type  2   force =    -0.00000135   -0.00000078   -0.00000055
     atom    3 type  3   force =    -0.00000135   -0.00000078   -0.00000055
     atom    4 type  4   force =    -0.00000135   -0.00000078   -0.00000055
     atom    5 type  5   force =     0.00000135    0.00000078    0.00000055
     atom    6 type  5   force =     0.00000135    0.00000078    0.00000055
     atom    7 type  5   force =     0.00000135    0.00000078    0.00000055
     atom    8 type  5   force =     0.00000135    0.00000078    0.00000055
     The local contribution  to forces
     atom    1 type  1   force =    -0.00106838   -0.00061625    0.00232933
     atom    2 type  2   force =    -0.00106832   -0.00061796    0.00233036
     atom    3 type  3   force =    -0.00106863   -0.00061600    0.00232988
     atom    4 type  4   force =    -0.00106879   -0.00061776    0.00233023
     atom    5 type  5   force =     0.00110990    0.00063899   -0.00275549
     atom    6 type  5   force =     0.00111625    0.00064447   -0.00276148
     atom    7 type  5   force =     0.00111469    0.00064353   -0.00276017
     atom    8 type  5   force =     0.00110847    0.00064175   -0.00275553
     The core correction contribution to forces
     atom    1 type  1   force =    -0.00009976   -0.00005759    0.00030980
     atom    2 type  2   force =    -0.00009978   -0.00005761    0.00030981
     atom    3 type  3   force =    -0.00009978   -0.00005760    0.00030981
     atom    4 type  4   force =    -0.00009977   -0.00005760    0.00030980
     atom    5 type  5   force =     0.00000648    0.00000375   -0.00001553
     atom    6 type  5   force =     0.00000647    0.00000373   -0.00001551
     atom    7 type  5   force =     0.00000647    0.00000374   -0.00001552
     atom    8 type  5   force =     0.00000649    0.00000374   -0.00001552
     The Hubbard contrib.    to forces
     atom    1 type  1   force =     0.00000000    0.00000000    0.00000000
     atom    2 type  2   force =     0.00000000    0.00000000    0.00000000
     atom    3 type  3   force =     0.00000000    0.00000000    0.00000000
     atom    4 type  4   force =     0.00000000    0.00000000    0.00000000
     atom    5 type  5   force =     0.00000000    0.00000000    0.00000000
     atom    6 type  5   force =     0.00000000    0.00000000    0.00000000
     atom    7 type  5   force =     0.00000000    0.00000000    0.00000000
     atom    8 type  5   force =     0.00000000    0.00000000    0.00000000
     The SCF correction term to forces
     atom    1 type  1   force =    -0.00000043   -0.00000108    0.00000091
     atom    2 type  2   force =    -0.00000011    0.00000150   -0.00000069
     atom    3 type  3   force =     0.00000033   -0.00000131    0.00000001
     atom    4 type  4   force =     0.00000015    0.00000112   -0.00000035
     atom    5 type  5   force =     0.00000255    0.00000343   -0.00000278
     atom    6 type  5   force =    -0.00000401   -0.00000256    0.00000345
     atom    7 type  5   force =    -0.00000250   -0.00000121    0.00000204
     atom    8 type  5   force =     0.00000399    0.00000038   -0.00000262

     Total force =     0.007527     Total SCF correction =     0.000010

     BFGS Geometry Optimization
     Energy error            =      0.0E+00 Ry
     Gradient error          =      2.4E-03 Ry/Bohr

     number of scf cycles    =   1
     number of bfgs steps    =   0

     energy             new  =   -1410.6460793828 Ry

     new trust radius        =       0.0026619015 bohr
     new conv_thr            =            1.0E-10 Ry

ATOMIC_POSITIONS (crystal)
Mn1              0.3748902759        0.3748902252        0.7504019036
Mn2              0.3748902706        0.8748903560        0.7504017708
Mn3              0.8748903349        0.3748902382        0.7504018266
Mn4              0.8748902697        0.8748903319        0.7504018025
S                0.0001096989        0.0001096809       -0.0004017797
S                0.0001097459        0.5001097335       -0.0004018837
S                0.5001097286        0.0001097352       -0.0004018661
S                0.5001096756        0.5001096990       -0.0004017741

     Writing config-only to output data dir ./temp/mns.save/ :
     XML data file
     NEW-OLD atomic charge density approx. for the potential

[...]

     Total force =     0.006185     Total SCF correction =     0.000012
     Energy error            =      5.2E-05 Ry
     Gradient error          =      2.0E-03 Ry/Bohr

[...]

     energy             old  =   -1410.6460793828 Ry
     energy             new  =   -1410.6461309757 Ry

     CASE: energy            _new < energy            _old

     WARNING: bfgs curvature condition failed, Theta= 0.974
     new trust radius        =       0.0029280917 bohr
     new conv_thr            =            5.2E-12 Ry

[...]

     number of scf cycles    =   5
     number of bfgs steps    =   4

     energy             old  =   -1410.6462207314 Ry
     energy             new  =   -1410.6462380780 Ry

     CASE: energy            _new < energy            _old

     small trust_radius: resetting bfgs history

     new trust radius        =       0.0000329953 bohr
     new conv_thr            =            1.0E-12 Ry

ATOMIC_POSITIONS (crystal)
Mn1              0.3743876899        0.3743872427        0.7522579793
Mn2              0.3743874809        0.8743875482        0.7522578725
Mn3              0.8743873475        0.3743872778        0.7522582490
Mn4              0.8743872814        0.8743877542        0.7522578443
S                0.0006125049        0.0006124813       -0.0022578638
S                0.0006125852        0.5006126160       -0.0022581096
S                0.5006126064        0.0006125430       -0.0022580361
S                0.5006125037        0.5006125368       -0.0022579358

     Writing config-only to output data dir ./temp/mns.save/ :
     XML data file
     NEW-OLD atomic charge density approx. for the potential

     Check: negative core charge=   -0.000237

     Self-consistent Calculation

[...]

     Threshold (ethr) on eigenvalues was too large:
     Diagonalizing with lowered threshold

     Davidson diagonalization with overlap

[...]

     total energy              =   -1410.64623809 Ry
     estimated scf accuracy    <          2.1E-12 Ry

     iteration # 11     ecut=    30.00 Ry     beta= 0.70
     Davidson diagonalization with overlap

     ethr =  1.00E-13,  avg # of iterations =  1.0

     End of self-consistent calculation

[...]

          k =-0.3333 0.1925 0.6260 (  3178 PWs)   bands (ev):

[...]

          k = 0.3333-0.5774-0.9798 (  3173 PWs)   bands (ev):

   -72.2478 -72.2477 -72.2477 -72.2476 -40.9931 -40.9929 -40.9921 -40.9921
   -40.9901 -40.9899 -40.9893 -40.9888 -40.9868 -40.9863 -40.9860 -40.9854
    -6.0152  -5.8056  -5.7814  -5.7594   2.4392   2.4519   2.4862   2.5869
     2.8741   3.0407   3.1198   3.4717   3.6472   3.6793   3.6876   3.7286
     6.3405   6.4248   6.4452   6.4840   6.6803   6.6982   6.7130   6.9344
     7.0718   7.0988   7.1441   7.4620   7.5203   7.5324   7.5421   7.9456
     7.9939   8.0662

     occupation numbers
     1.0000   1.0000   1.0000   1.0000   1.0000   1.0000   1.0000   1.0000
     1.0000   1.0000   1.0000   1.0000   1.0000   1.0000   1.0000   1.0000
     1.0000   1.0000   1.0000   1.0000   1.0000   1.0000   1.0000   1.0000
     1.0000   1.0000   1.0000   1.0000   1.0000   1.0000   1.0000   1.0000
     1.0000   1.0000   1.0000   1.0000   1.0000   1.0000   1.0000   0.9914
     0.8302   0.7497   0.5807   0.0010   0.0001   0.0001   0.0000   0.0000
     0.0000   0.0000

     the Fermi energy is     7.1636 ev

!    total energy              =   -1410.64623809 Ry
     total all-electron energy =    -12462.079852 Ry
     estimated scf accuracy    <          4.2E-13 Ry
     smearing contrib. (-TS)   =      -0.00967461 Ry
     internal energy E=F+TS    =   -1410.63656348 Ry

     The total energy is F=E-TS. E is the sum of the following terms:
     one-electron contribution =    -610.22777451 Ry
     hartree contribution      =     338.06594906 Ry
     xc contribution           =    -130.68888361 Ry
     ewald contribution        =    -513.01672946 Ry
     one-center paw contrib.   =    -494.76912495 Ry
      -> PAW hartree energy AE =     354.24061058 Ry
      -> PAW hartree energy PS =    -356.06367516 Ry
      -> PAW xc energy AE      =    -208.46277672 Ry
      -> PAW xc energy PS      =      55.13261556 Ry
      -> total E_H with PAW    =     336.24288449 Ry
      -> total E_XC with PAW   =    -284.01904477 Ry

     convergence has been achieved in  11 iterations

     Forces acting on atoms (cartesian axes, Ry/au):

     atom    1 type  1   force =     0.00002116    0.00001225    0.00001074
     atom    2 type  2   force =     0.00002131    0.00001239    0.00001060
     atom    3 type  3   force =     0.00002139    0.00001227    0.00001059
     atom    4 type  4   force =     0.00002128    0.00001219    0.00001073
     atom    5 type  5   force =    -0.00002127   -0.00001207   -0.00001076
     atom    6 type  5   force =    -0.00002140   -0.00001241   -0.00001054
     atom    7 type  5   force =    -0.00002130   -0.00001220   -0.00001068
     atom    8 type  5   force =    -0.00002116   -0.00001241   -0.00001068
     The non-local contrib.  to forces
     atom    1 type  1   force =     0.00009759    0.00005519    0.00029999
     atom    2 type  2   force =     0.00009713    0.00005643    0.00029977
     atom    3 type  3   force =     0.00009641    0.00005537    0.00030057
     atom    4 type  4   force =     0.00009685    0.00005707    0.00029977
     atom    5 type  5   force =    -0.00150797   -0.00087028    0.00361839
     atom    6 type  5   force =    -0.00150812   -0.00087078    0.00361864
     atom    7 type  5   force =    -0.00150791   -0.00087049    0.00361846
     atom    8 type  5   force =    -0.00150776   -0.00087085    0.00361848
     The ionic contribution  to forces
     atom    1 type  1   force =     0.02812536    0.01631265   -0.07014171
     atom    2 type  2   force =     0.02814357    0.01623938   -0.07012639
     atom    3 type  3   force =     0.02819951    0.01629169   -0.07017876
     atom    4 type  4   force =     0.02818185    0.01619386   -0.07013273
     atom    5 type  5   force =    -0.02814741   -0.01628216    0.07014306
     atom    6 type  5   force =    -0.02815371   -0.01624947    0.07013544
     atom    7 type  5   force =    -0.02817808   -0.01627177    0.07015890
     atom    8 type  5   force =    -0.02817110   -0.01623420    0.07014220
     The local contribution  to forces
     atom    1 type  1   force =    -0.02822334   -0.01636820    0.06986618
     atom    2 type  2   force =    -0.02824127   -0.01629625    0.06985124
     atom    3 type  3   force =    -0.02829672   -0.01634742    0.06990289
     atom    4 type  4   force =    -0.02827931   -0.01625117    0.06985751
     atom    5 type  5   force =     0.02956192    0.01709920   -0.07360324
     atom    6 type  5   force =     0.02956825    0.01706610   -0.07359547
     atom    7 type  5   force =     0.02959290    0.01708866   -0.07361924
     atom    8 type  5   force =     0.02958590    0.01705067   -0.07360236
     The core correction contribution to forces
     atom    1 type  1   force =     0.00002450    0.00001445   -0.00002786
     atom    2 type  2   force =     0.00002469    0.00001422   -0.00002787
     atom    3 type  3   force =     0.00002491    0.00001444   -0.00002807
     atom    4 type  4   force =     0.00002473    0.00001395   -0.00002779
     atom    5 type  5   force =     0.00007477    0.00004317   -0.00018296
     atom    6 type  5   force =     0.00007478    0.00004317   -0.00018297
     atom    7 type  5   force =     0.00007478    0.00004317   -0.00018297
     atom    8 type  5   force =     0.00007477    0.00004317   -0.00018296
     The Hubbard contrib.    to forces
     atom    1 type  1   force =     0.00000000    0.00000000    0.00000000
     atom    2 type  2   force =     0.00000000    0.00000000    0.00000000
     atom    3 type  3   force =     0.00000000    0.00000000    0.00000000
     atom    4 type  4   force =     0.00000000    0.00000000    0.00000000
     atom    5 type  5   force =     0.00000000    0.00000000    0.00000000
     atom    6 type  5   force =     0.00000000    0.00000000    0.00000000
     atom    7 type  5   force =     0.00000000    0.00000000    0.00000000
     atom    8 type  5   force =     0.00000000    0.00000000    0.00000000
     The SCF correction term to forces
     atom    1 type  1   force =    -0.00000013   -0.00000022    0.00000017
     atom    2 type  2   force =     0.00000000    0.00000023   -0.00000013
     atom    3 type  3   force =     0.00000011   -0.00000018   -0.00000001
     atom    4 type  4   force =    -0.00000002    0.00000010   -0.00000000
     atom    5 type  5   force =     0.00000024   -0.00000038    0.00000002
     atom    6 type  5   force =     0.00000021    0.00000019   -0.00000017
     atom    7 type  5   force =    -0.00000017   -0.00000016    0.00000020
     atom    8 type  5   force =    -0.00000016    0.00000042   -0.00000001

     Total force =     0.000076     Total SCF correction =     0.000001
     Energy error            =      7.7E-09 Ry
     Gradient error          =      2.1E-05 Ry/Bohr

     bfgs converged in   6 scf cycles and   5 bfgs steps
     (criteria: energy <  1.0E-05 Ry, force <  1.0E-04 Ry/Bohr)

     End of BFGS Geometry Optimization

     Final energy             =   -1410.6462380858 Ry

     File ./temp/mns.bfgs deleted, as requested
Begin final coordinates

ATOMIC_POSITIONS (crystal)
Mn1              0.3743876899        0.3743872427        0.7522579793
Mn2              0.3743874809        0.8743875482        0.7522578725
Mn3              0.8743873475        0.3743872778        0.7522582490
Mn4              0.8743872814        0.8743877542        0.7522578443
S                0.0006125049        0.0006124813       -0.0022578638
S                0.0006125852        0.5006126160       -0.0022581096
S                0.5006126064        0.0006125430       -0.0022580361
S                0.5006125037        0.5006125368       -0.0022579358
End final coordinates

     Writing all to output data dir ./temp/mns.save/ :
     XML data file, charge density, pseudopotentials, collected wavefunctions

     General routines

     Parallel routines

     PAW routines

   This run was terminated on:  19:33: 1  31Jan2025

   JOB DONE.