     Program PWSCF v.7.3.1 starts on 25Dec2024 at 22:25: 1

     Reading input from vc_relax.in

     Current dimensions of program PWSCF are:
     Max number of different atomic species (ntypx) = 10
     Max number of k-points (npk) =  40000
     Max angular momentum in pseudopotentials (lmaxx) =  4
     file C.pbesol-n-kjpaw_psl.1.0.0.UPF: wavefunction(s)  2S 2P renormalized

     R & G space division:  proc/nbgrp/npool/nimage =       4
     Subspace diagonalization in iterative solution of the eigenvalue problem:
     a serial algorithm will be used

     Using Slab Decomposition

     bravais-lattice index     =            4
     lattice parameter (alat)  =       4.6625  a.u.
     unit-cell volume          =     277.6091 (a.u.)^3
     number of atoms/cell      =            4
     number of atomic types    =            1
     number of electrons       =        16.00
     number of Kohn-Sham states=           12
     kinetic-energy cutoff     =      40.0000  Ry
     charge density cutoff     =     320.0000  Ry
     scf convergence threshold =      1.0E-07
     mixing beta               =       0.7000
     number of iterations used =            8  plain     mixing
     energy convergence thresh.=      1.0E-05
     force convergence thresh. =      1.0E-04
     press convergence thresh. =      5.0E-01
     Exchange-correlation= SLA  PW   PSX  PSC
                           (   1   4  10   8   0   0   0)
     nstep                     =           50

     celldm(1)=   4.662505  celldm(2)=   0.000000  celldm(3)=   3.162607
     celldm(4)=   0.000000  celldm(5)=   0.000000  celldm(6)=   0.000000

     crystal axes: (cart. coord. in units of alat)
               a(1) = (   1.000000   0.000000   0.000000 )
               a(2) = (  -0.500000   0.866025   0.000000 )
               a(3) = (   0.000000   0.000000   3.162607 )

     reciprocal axes: (cart. coord. in units 2 pi/alat)
               b(1) = (  1.000000  0.577350 -0.000000 )
               b(2) = (  0.000000  1.154701  0.000000 )
               b(3) = (  0.000000 -0.000000  0.316195 )

     PseudoPot. # 1 for C  read from file:
     ./../../pseudos/C.pbesol-n-kjpaw_psl.1.0.0.UPF
     MD5 check sum: f9b2fe17d1f478429498b05d17159f9e
     Pseudo is Projector augmented-wave + core cor, Zval =  4.0
     Generated using &quot;atomic&quot; code by A. Dal Corso  v.6.3
     Shape of augmentation charge: PSQ
     Using radial grid of 1073 points,  4 beta functions with:
                l(1) =   0
                l(2) =   0
                l(3) =   1
                l(4) =   1
     Q(r) pseudized with 0 coefficients

     atomic species   valence    mass     pseudopotential
     C                 4.00    12.01100     C ( 1.00)

     24 Sym. Ops., with inversion, found (12 have fractional translation)

   Cartesian axes

     site n.     atom                  positions (alat units)
         1        C      tau(   1) = (   0.0000000   0.0000000   0.7906518  )
         2        C      tau(   2) = (   0.0000000   0.0000000   2.3719553  )
         3        C      tau(   3) = (   0.0000000   0.5773503   0.7906518  )
         4        C      tau(   4) = (   0.5000000   0.2886751   2.3719553  )

     DFT-D3 Dispersion Correction (3-body terms):
       Reference C6 values for interpolation:

         atom   Coordination number   C6
         C          0.000            98.23
         C          0.987            86.49
         C          1.998            58.72
         C          2.999            51.56
         C          3.984            36.41

       Values used:

         atom   Coordination number  R0_AB[au]  C6      C8
         C          3.313            2.750     48.31   1397.35
         C          3.313            2.750     48.31   1397.35
         C          3.313            2.750     48.32   1397.37
         C          3.313            2.750     48.32   1397.37

         Molecular C6 ( Ry / a.u.^6 ) =       773.04

     number of k points=    57  Gaussian smearing, width (Ry)=  0.0200
                       cart. coord. in units 2pi/alat
        k(    1) = (   0.0000000   0.0000000   0.0000000), wk =   0.0034722
        k(    2) = (   0.0000000   0.0000000   0.0790487), wk =   0.0069444
        k(    3) = (   0.0000000   0.0000000  -0.1580974), wk =   0.0034722
        k(    4) = (   0.0000000   0.0962250   0.0000000), wk =   0.0208333
        k(    5) = (   0.0000000   0.0962250   0.0790487), wk =   0.0416667
        k(    6) = (   0.0000000   0.0962250  -0.1580974), wk =   0.0208333
        k(    7) = (   0.0000000   0.1924501   0.0000000), wk =   0.0208333
        k(    8) = (   0.0000000   0.1924501   0.0790487), wk =   0.0416667
        k(    9) = (   0.0000000   0.1924501  -0.1580974), wk =   0.0208333
        k(   10) = (   0.0000000   0.2886751   0.0000000), wk =   0.0208333
        k(   11) = (   0.0000000   0.2886751   0.0790487), wk =   0.0416667
        k(   12) = (   0.0000000   0.2886751  -0.1580974), wk =   0.0208333
        k(   13) = (   0.0000000   0.3849002   0.0000000), wk =   0.0208333
        k(   14) = (   0.0000000   0.3849002   0.0790487), wk =   0.0416667
        k(   15) = (   0.0000000   0.3849002  -0.1580974), wk =   0.0208333
        k(   16) = (   0.0000000   0.4811252   0.0000000), wk =   0.0208333
        k(   17) = (   0.0000000   0.4811252   0.0790487), wk =   0.0416667
        k(   18) = (   0.0000000   0.4811252  -0.1580974), wk =   0.0208333
        k(   19) = (   0.0000000  -0.5773503   0.0000000), wk =   0.0104167
        k(   20) = (   0.0000000  -0.5773503   0.0790487), wk =   0.0208333
        k(   21) = (   0.0000000  -0.5773503  -0.1580974), wk =   0.0104167
        k(   22) = (   0.0833333   0.1443376   0.0000000), wk =   0.0208333
        k(   23) = (   0.0833333   0.1443376   0.0790487), wk =   0.0416667
        k(   24) = (   0.0833333   0.1443376  -0.1580974), wk =   0.0208333
        k(   25) = (   0.0833333   0.2405626   0.0000000), wk =   0.0416667
        k(   26) = (   0.0833333   0.2405626   0.0790487), wk =   0.0833333
        k(   27) = (   0.0833333   0.2405626  -0.1580974), wk =   0.0416667
        k(   28) = (   0.0833333   0.3367877   0.0000000), wk =   0.0416667
        k(   29) = (   0.0833333   0.3367877   0.0790487), wk =   0.0833333
        k(   30) = (   0.0833333   0.3367877  -0.1580974), wk =   0.0416667
        k(   31) = (   0.0833333   0.4330127   0.0000000), wk =   0.0416667
        k(   32) = (   0.0833333   0.4330127   0.0790487), wk =   0.0833333
        k(   33) = (   0.0833333   0.4330127  -0.1580974), wk =   0.0416667
        k(   34) = (   0.0833333   0.5292377   0.0000000), wk =   0.0416667
        k(   35) = (   0.0833333   0.5292377   0.0790487), wk =   0.0833333
        k(   36) = (   0.0833333   0.5292377  -0.1580974), wk =   0.0416667
        k(   37) = (   0.1666667   0.2886751   0.0000000), wk =   0.0208333
        k(   38) = (   0.1666667   0.2886751   0.0790487), wk =   0.0416667
        k(   39) = (   0.1666667   0.2886751  -0.1580974), wk =   0.0208333
        k(   40) = (   0.1666667   0.3849002   0.0000000), wk =   0.0416667
        k(   41) = (   0.1666667   0.3849002   0.0790487), wk =   0.0833333
        k(   42) = (   0.1666667   0.3849002  -0.1580974), wk =   0.0416667
        k(   43) = (   0.1666667   0.4811252   0.0000000), wk =   0.0416667
        k(   44) = (   0.1666667   0.4811252   0.0790487), wk =   0.0833333
        k(   45) = (   0.1666667   0.4811252  -0.1580974), wk =   0.0416667
        k(   46) = (   0.1666667   0.5773503   0.0000000), wk =   0.0208333
        k(   47) = (   0.1666667   0.5773503   0.0790487), wk =   0.0416667
        k(   48) = (   0.1666667   0.5773503  -0.1580974), wk =   0.0208333
        k(   49) = (   0.2500000   0.4330127   0.0000000), wk =   0.0208333
        k(   50) = (   0.2500000   0.4330127   0.0790487), wk =   0.0416667
        k(   51) = (   0.2500000   0.4330127  -0.1580974), wk =   0.0208333
        k(   52) = (   0.2500000   0.5292377   0.0000000), wk =   0.0416667
        k(   53) = (   0.2500000   0.5292377   0.0790487), wk =   0.0833333
        k(   54) = (   0.2500000   0.5292377  -0.1580974), wk =   0.0416667
        k(   55) = (   0.3333333   0.5773503   0.0000000), wk =   0.0069444
        k(   56) = (   0.3333333   0.5773503   0.0790487), wk =   0.0138889
        k(   57) = (   0.3333333   0.5773503  -0.1580974), wk =   0.0069444

     Check: negative core charge=   -0.000011

     Initial potential from superposition of free atoms

     starting charge      15.9998, renormalised to      16.0000
     Starting wfcs are   16 randomized atomic wfcs
     Checking if some PAW data can be deallocated...

     Self-consistent Calculation

     iteration #  1     ecut=    40.00 Ry     beta= 0.70
     Davidson diagonalization with overlap
     ethr =  1.00E-02,  avg # of iterations =  2.9

     total energy              =     -72.42890363 Ry
     estimated scf accuracy    <       0.37122049 Ry

[...]

     iteration #  3     ecut=    40.00 Ry     beta= 0.70
     Davidson diagonalization with overlap
     c_bands:  1 eigenvalues not converged
     ethr =  2.34E-05,  avg # of iterations =  7.2

[...]

     End of self-consistent calculation

          k = 0.0000 0.0000 0.0000 (  1193 PWs)   bands (ev):

   -14.1529 -14.0668  -2.6970  -1.8294   2.3528   2.3528   2.3571   2.3571
     8.6153  13.6477  13.6478  13.6615

[...]

     the Fermi energy is     5.3607 ev

!    total energy              =     -72.47853555 Ry
     total all-electron energy =      -303.594647 Ry
     estimated scf accuracy    <       0.00000004 Ry
     smearing contrib. (-TS)   =      -0.00052278 Ry
     internal energy E=F+TS    =     -72.47801277 Ry

     The total energy is F=E-TS. E is the sum of the following terms:
     one-electron contribution =     -22.93501564 Ry
     hartree contribution      =      18.85518496 Ry
     xc contribution           =     -18.30992148 Ry
     ewald contribution        =     -26.51210758 Ry
     DFT-D3 Dispersion         =      -0.01543152 Ry
     one-center paw contrib.   =     -23.56072151 Ry

     convergence has been achieved in   6 iterations

     Forces acting on atoms (cartesian axes, Ry/au):

     atom    1 type  1   force =    -0.00000000    0.00000000    0.00000000
     atom    2 type  1   force =     0.00000000    0.00000000    0.00000000
     atom    3 type  1   force =     0.00000000   -0.00000000    0.00000000
     atom    4 type  1   force =     0.00000000    0.00000000   -0.00000000

     Total force =     0.000000     Total SCF correction =     0.000000

     Computing stress (Cartesian axis) and pressure

          total   stress  (Ry/bohr**3)                   (kbar)     P=      -33.53
  -0.00027168   0.00000000  -0.00000000          -39.97        0.00       -0.00
   0.00000000  -0.00027168  -0.00000000            0.00      -39.97       -0.00
   0.00000000   0.00000000  -0.00014043            0.00        0.00      -20.66

     BFGS Geometry Optimization
     Energy error            =      0.0E+00 Ry
     Gradient error          =      1.2E-25 Ry/Bohr
     Cell gradient error     =      4.0E+01 kbar

     number of scf cycles    =   1
     number of bfgs steps    =   0

     enthalpy           new  =     -72.4785355469 Ry

     new trust radius        =       0.0226329117 bohr
ibrav =      4
 celldm(1) =      4.63083750
 celldm(3) =      3.17305496
Input lattice vectors:
     0.99320806     0.00000000     0.00000000
    -0.49660403     0.86014342     0.00000000
    -0.00000000    -0.00000000     3.15150378
New lattice vectors in INITIAL alat:
     0.99320806     0.00000000     0.00000000
    -0.49660403     0.86014342     0.00000000
     0.00000000     0.00000000     3.15150378
New lattice vectors in NEW alat (for information only):
     1.00000000     0.00000000     0.00000000
    -0.50000000     0.86602540     0.00000000
     0.00000000     0.00000000     3.17305496
Discrepancy in bohr =     0.000000    0.000000    0.000000
     new conv_thr            =       0.0000001000 Ry

     new unit-cell volume =    272.88952 a.u.^3 (    40.43805 Ang^3 )
     density =      1.97287 g/cm^3

CELL_PARAMETERS (alat=  4.66250493)
   0.993208065   0.000000000   0.000000000
  -0.496604032   0.860143415   0.000000000
   0.000000000   0.000000000   3.151503776

ATOMIC_POSITIONS (crystal)
C               -0.0000000000        0.0000000000        0.2500000000
C                0.0000000000        0.0000000000        0.7500000000
C                0.3333333330        0.6666666660        0.2500000000
C                0.6666666660        0.3333333330        0.7500000000

     Writing config-only to output data dir ./temp/graphite.save/ :
     XML data file
     NEW-OLD atomic charge density approx. for the potential

[...]

     Energy error            =      1.9E-04 Ry
     Gradient error          =      2.0E-25 Ry/Bohr
     Cell gradient error     =      3.7E+01 kbar

[...]

     enthalpy           old  =     -72.4785355469 Ry
     enthalpy           new  =     -72.4787249392 Ry

     CASE: enthalpy          _new < enthalpy          _old

[...]

     Threshold (ethr) on eigenvalues was too large:
     Diagonalizing with lowered threshold

     Davidson diagonalization with overlap
     ethr =  5.02E-08,  avg # of iterations =  1.4

[...]

     Energy error            =      1.8E-05 Ry
     Gradient error          =      1.2E-25 Ry/Bohr
     Cell gradient error     =      1.5E-01 kbar

     number of scf cycles    =  13
     number of bfgs steps    =  12

     enthalpy           old  =     -72.4826509537 Ry
     enthalpy           new  =     -72.4826694282 Ry

     CASE: enthalpy          _new < enthalpy          _old

     new trust radius        =       0.0012280439 bohr
ibrav =      4
 celldm(1) =      4.64604039
 celldm(3) =      2.69469420
Input lattice vectors:
     0.99646873     0.00000000    -0.00000000
    -0.49823437     0.86296724    -0.00000000
    -0.00000000    -0.00000000     2.68517852
New lattice vectors in INITIAL alat:
     0.99646873     0.00000000     0.00000000
    -0.49823437     0.86296724     0.00000000
     0.00000000     0.00000000     2.68517852
New lattice vectors in NEW alat (for information only):
     1.00000000     0.00000000     0.00000000
    -0.50000000     0.86602540     0.00000000
     0.00000000     0.00000000     2.69469420
Discrepancy in bohr =     0.000000    0.000000    0.000000
     new conv_thr            =       0.0000000010 Ry

     new unit-cell volume =    234.03945 a.u.^3 (    34.68107 Ang^3 )
     density =      2.30036 g/cm^3

[...]

ATOMIC_POSITIONS (crystal)
C               -0.0000000000       -0.0000000000        0.2500000000
C                0.0000000000        0.0000000000        0.7500000000
C                0.3333333330        0.6666666660        0.2500000000
C                0.6666666660        0.3333333330        0.7500000000

     Writing config-only to output data dir ./temp/graphite.save/ :
     XML data file
     NEW-OLD atomic charge density approx. for the potential

[...]

     Threshold (ethr) on eigenvalues was too large:
     Diagonalizing with lowered threshold

     Davidson diagonalization with overlap
     ethr =  1.28E-10,  avg # of iterations =  2.8

[...]

     Energy error            =      6.5E-08 Ry
     Gradient error          =      1.4E-25 Ry/Bohr
     Cell gradient error     =      3.1E-02 kbar
ibrav =      4
 celldm(1) =      4.64604039
 celldm(3) =      2.69469420
Input lattice vectors:
     0.99646873     0.00000000     0.00000000
    -0.49823437     0.86296724     0.00000000
     0.00000000     0.00000000     2.68517852
New lattice vectors in INITIAL alat:
     0.99646873     0.00000000     0.00000000
    -0.49823437     0.86296724     0.00000000
     0.00000000     0.00000000     2.68517852
New lattice vectors in NEW alat (for information only):
     1.00000000     0.00000000     0.00000000
    -0.50000000     0.86602540     0.00000000
     0.00000000     0.00000000     2.69469420
Discrepancy in bohr =     0.000000    0.000000    0.000000

     bfgs converged in  14 scf cycles and  13 bfgs steps
     (criteria: energy <  1.0E-05 Ry, force <  1.0E-04 Ry/Bohr, cell <  5.0E-01 kbar)

     End of BFGS Geometry Optimization

     Final enthalpy           =     -72.4826694934 Ry

     File ./temp/graphite.bfgs deleted, as requested
Begin final coordinates
     new unit-cell volume =    234.03945 a.u.^3 (    34.68107 Ang^3 )
     density =      2.30036 g/cm^3

CELL_PARAMETERS (alat=  4.66250493)
   0.996468735   0.000000000   0.000000000
  -0.498234367   0.862967238   0.000000000
   0.000000000   0.000000000   2.685178524

ATOMIC_POSITIONS (crystal)
C               -0.0000000000       -0.0000000000        0.2500000000
C                0.0000000000        0.0000000000        0.7500000000
C                0.3333333330        0.6666666660        0.2500000000
C                0.6666666660        0.3333333330        0.7500000000
End final coordinates

     Writing config-only to output data dir ./temp/graphite.save/ :
     XML data file

     Final scf calculation at the relaxed structure.
     The G-vectors are recalculated for the final unit cell
     Results may differ from those at the preceding step.

     Using Slab Decomposition

     bravais-lattice index     =            4
     lattice parameter (alat)  =       4.6625  a.u.
     unit-cell volume          =     234.0394 (a.u.)^3
     number of atoms/cell      =            4
     number of atomic types    =            1
     number of electrons       =        16.00
     number of Kohn-Sham states=           12
     kinetic-energy cutoff     =      40.0000  Ry
     charge density cutoff     =     320.0000  Ry
     scf convergence threshold =      1.0E-09
     mixing beta               =       0.7000
     number of iterations used =            8  plain     mixing
     press convergence thresh. =      5.0E-01
     Exchange-correlation= SLA  PW   PSX  PSC
                           (   1   4  10   8   0   0   0)

     celldm(1)=   4.662505  celldm(2)=   0.000000  celldm(3)=   3.162607
     celldm(4)=   0.000000  celldm(5)=   0.000000  celldm(6)=   0.000000

     crystal axes: (cart. coord. in units of alat)
               a(1) = (   0.996469   0.000000   0.000000 )
               a(2) = (  -0.498234   0.862967   0.000000 )
               a(3) = (   0.000000   0.000000   2.685179 )

     reciprocal axes: (cart. coord. in units 2 pi/alat)
               b(1) = (  1.003544  0.579396 -0.000000 )
               b(2) = (  0.000000  1.158793  0.000000 )
               b(3) = (  0.000000 -0.000000  0.372415 )

     PseudoPot. # 1 for C  read from file:
     ./../../pseudos/C.pbesol-n-kjpaw_psl.1.0.0.UPF
     MD5 check sum: f9b2fe17d1f478429498b05d17159f9e
     Pseudo is Projector augmented-wave + core cor, Zval =  4.0
     Generated using &quot;atomic&quot; code by A. Dal Corso  v.6.3
     Shape of augmentation charge: PSQ
     Using radial grid of 1073 points,  4 beta functions with:
                l(1) =   0
                l(2) =   0
                l(3) =   1
                l(4) =   1
     Q(r) pseudized with 0 coefficients

     atomic species   valence    mass     pseudopotential
     C                 4.00    12.01100     C ( 1.00)

     24 Sym. Ops., with inversion, found (12 have fractional translation)

   Cartesian axes

     site n.     atom                  positions (alat units)
         1        C      tau(   1) = (  -0.0000000  -0.0000000   0.6712946  )
         2        C      tau(   2) = (   0.0000000   0.0000000   2.0138839  )
         3        C      tau(   3) = (   0.0000000   0.5753115   0.6712946  )
         4        C      tau(   4) = (   0.4982344   0.2876557   2.0138839  )

     DFT-D3 Dispersion Correction (3-body terms):
       Reference C6 values for interpolation:

         atom   Coordination number   C6
         C          0.000            98.23
         C          0.987            86.49
         C          1.998            58.72
         C          2.999            51.56
         C          3.984            36.41

       Values used:

         atom   Coordination number  R0_AB[au]  C6      C8
         C          3.337            2.750     47.80   1382.46
         C          3.337            2.750     47.80   1382.46
         C          3.336            2.750     47.81   1382.78
         C          3.336            2.750     47.81   1382.78

         Molecular C6 ( Ry / a.u.^6 ) =       764.89

     number of k points=    57  Gaussian smearing, width (Ry)=  0.0200
                       cart. coord. in units 2pi/alat
        k(    1) = (   0.0000000   0.0000000   0.0000000), wk =   0.0034722
        k(    2) = (   0.0000000   0.0000000   0.0931037), wk =   0.0069444
        k(    3) = (   0.0000000   0.0000000  -0.1862074), wk =   0.0034722
        k(    4) = (   0.0000000   0.0965660   0.0000000), wk =   0.0208333
        k(    5) = (   0.0000000   0.0965660   0.0931037), wk =   0.0416667
        k(    6) = (   0.0000000   0.0965660  -0.1862074), wk =   0.0208333
        k(    7) = (   0.0000000   0.1931321   0.0000000), wk =   0.0208333
        k(    8) = (   0.0000000   0.1931321   0.0931037), wk =   0.0416667
        k(    9) = (   0.0000000   0.1931321  -0.1862074), wk =   0.0208333
        k(   10) = (   0.0000000   0.2896981   0.0000000), wk =   0.0208333
        k(   11) = (   0.0000000   0.2896981   0.0931037), wk =   0.0416667
        k(   12) = (   0.0000000   0.2896981  -0.1862074), wk =   0.0208333
        k(   13) = (   0.0000000   0.3862642   0.0000000), wk =   0.0208333
        k(   14) = (   0.0000000   0.3862642   0.0931037), wk =   0.0416667
        k(   15) = (   0.0000000   0.3862642  -0.1862074), wk =   0.0208333
        k(   16) = (   0.0000000   0.4828302   0.0000000), wk =   0.0208333
        k(   17) = (   0.0000000   0.4828302   0.0931037), wk =   0.0416667
        k(   18) = (   0.0000000   0.4828302  -0.1862074), wk =   0.0208333
        k(   19) = (   0.0000000  -0.5793963   0.0000000), wk =   0.0104167
        k(   20) = (   0.0000000  -0.5793963   0.0931037), wk =   0.0208333
        k(   21) = (   0.0000000  -0.5793963  -0.1862074), wk =   0.0104167
        k(   22) = (   0.0836286   0.1448491   0.0000000), wk =   0.0208333
        k(   23) = (   0.0836286   0.1448491   0.0931037), wk =   0.0416667
        k(   24) = (   0.0836286   0.1448491  -0.1862074), wk =   0.0208333
        k(   25) = (   0.0836286   0.2414151   0.0000000), wk =   0.0416667
        k(   26) = (   0.0836286   0.2414151   0.0931037), wk =   0.0833333
        k(   27) = (   0.0836286   0.2414151  -0.1862074), wk =   0.0416667
        k(   28) = (   0.0836286   0.3379812   0.0000000), wk =   0.0416667
        k(   29) = (   0.0836286   0.3379812   0.0931037), wk =   0.0833333
        k(   30) = (   0.0836286   0.3379812  -0.1862074), wk =   0.0416667
        k(   31) = (   0.0836286   0.4345472   0.0000000), wk =   0.0416667
        k(   32) = (   0.0836286   0.4345472   0.0931037), wk =   0.0833333
        k(   33) = (   0.0836286   0.4345472  -0.1862074), wk =   0.0416667
        k(   34) = (   0.0836286   0.5311132   0.0000000), wk =   0.0416667
        k(   35) = (   0.0836286   0.5311132   0.0931037), wk =   0.0833333
        k(   36) = (   0.0836286   0.5311132  -0.1862074), wk =   0.0416667
        k(   37) = (   0.1672573   0.2896981   0.0000000), wk =   0.0208333
        k(   38) = (   0.1672573   0.2896981   0.0931037), wk =   0.0416667
        k(   39) = (   0.1672573   0.2896981  -0.1862074), wk =   0.0208333
        k(   40) = (   0.1672573   0.3862642   0.0000000), wk =   0.0416667
        k(   41) = (   0.1672573   0.3862642   0.0931037), wk =   0.0833333
        k(   42) = (   0.1672573   0.3862642  -0.1862074), wk =   0.0416667
        k(   43) = (   0.1672573   0.4828302   0.0000000), wk =   0.0416667
        k(   44) = (   0.1672573   0.4828302   0.0931037), wk =   0.0833333
        k(   45) = (   0.1672573   0.4828302  -0.1862074), wk =   0.0416667
        k(   46) = (   0.1672573   0.5793963   0.0000000), wk =   0.0208333
        k(   47) = (   0.1672573   0.5793963   0.0931037), wk =   0.0416667
        k(   48) = (   0.1672573   0.5793963  -0.1862074), wk =   0.0208333
        k(   49) = (   0.2508859   0.4345472   0.0000000), wk =   0.0208333
        k(   50) = (   0.2508859   0.4345472   0.0931037), wk =   0.0416667
        k(   51) = (   0.2508859   0.4345472  -0.1862074), wk =   0.0208333
        k(   52) = (   0.2508859   0.5311132   0.0000000), wk =   0.0416667
        k(   53) = (   0.2508859   0.5311132   0.0931037), wk =   0.0833333
        k(   54) = (   0.2508859   0.5311132  -0.1862074), wk =   0.0416667
        k(   55) = (   0.3345146   0.5793963   0.0000000), wk =   0.0069444
        k(   56) = (   0.3345146   0.5793963   0.0931037), wk =   0.0138889
        k(   57) = (   0.3345146   0.5793963  -0.1862074), wk =   0.0069444

     Check: negative core charge=   -0.000012

     Initial potential from superposition of free atoms

     starting charge      15.9998, renormalised to      16.0000
     Starting wfcs are   16 randomized atomic wfcs
     Checking if some PAW data can be deallocated...

     Self-consistent Calculation

[...]

     iteration #  4     ecut=    40.00 Ry     beta= 0.70
     Davidson diagonalization with overlap
     c_bands:  1 eigenvalues not converged
     ethr =  2.01E-06,  avg # of iterations =  3.2

[...]

     total energy              =     -72.48173525 Ry
     estimated scf accuracy    <          3.3E-09 Ry

     iteration #  8     ecut=    40.00 Ry     beta= 0.70
     Davidson diagonalization with overlap
     ethr =  2.08E-11,  avg # of iterations =  1.9

     End of self-consistent calculation

[...]

          k = 0.3345 0.5794-0.1862 (   984 PWs)   bands (ev):

    -5.4129  -5.4129  -5.4050  -5.4050  -3.5166  -3.5166   7.1136   7.1136
     7.1367   7.1367  17.0674  17.0674

     the Fermi energy is     7.1155 ev

!    total energy              =     -72.48173525 Ry
     total all-electron energy =      -303.597847 Ry
     estimated scf accuracy    <          1.5E-10 Ry
     smearing contrib. (-TS)   =      -0.00039515 Ry
     internal energy E=F+TS    =     -72.48134010 Ry

     The total energy is F=E-TS. E is the sum of the following terms:
     one-electron contribution =      -9.18130440 Ry
     hartree contribution      =      13.03963418 Ry
     xc contribution           =     -18.35627432 Ry
     ewald contribution        =     -34.40196230 Ry
     DFT-D3 Dispersion         =      -0.01918200 Ry
     one-center paw contrib.   =     -23.56225126 Ry

     convergence has been achieved in   8 iterations

     Forces acting on atoms (cartesian axes, Ry/au):

     atom    1 type  1   force =     0.00000000   -0.00000000    0.00000000
     atom    2 type  1   force =     0.00000000    0.00000000    0.00000000
     atom    3 type  1   force =     0.00000000   -0.00000000    0.00000000
     atom    4 type  1   force =     0.00000000    0.00000000    0.00000000

     Total force =     0.000000     Total SCF correction =     0.000000

     Computing stress (Cartesian axis) and pressure

          total   stress  (Ry/bohr**3)                   (kbar)     P=       -4.52
  -0.00002213   0.00000000   0.00000000           -3.26        0.00        0.00
   0.00000000  -0.00002213  -0.00000000            0.00       -3.26       -0.00
   0.00000000   0.00000000  -0.00004797            0.00        0.00       -7.06

     Writing all to output data dir ./temp/graphite.save/ :
     XML data file, charge density, pseudopotentials, collected wavefunctions

     General routines

     Parallel routines

   This run was terminated on:  22:26:12  25Dec2024

   JOB DONE.