     Program PWSCF v.7.3.1 starts on 20Jan2025 at 19:45:51

     Reading input from vc_relax.in

     Current dimensions of program PWSCF are:
     Max number of different atomic species (ntypx) = 10
     Max number of k-points (npk) =  40000
     Max angular momentum in pseudopotentials (lmaxx) =  4
     file Mn.pbe-spn-kjpaw_psl.0.3.1.UPF: wavefunction(s)  3P 3D renormalized
     file Mn.pbe-spn-kjpaw_psl.0.3.1.UPF: wavefunction(s)  3P 3D renormalized
     file Mn.pbe-spn-kjpaw_psl.0.3.1.UPF: wavefunction(s)  3P 3D renormalized
     file Mn.pbe-spn-kjpaw_psl.0.3.1.UPF: wavefunction(s)  3P 3D renormalized
     file S.pbe-n-kjpaw_psl.1.0.0.UPF: wavefunction(s)  3S 3P renormalized

     R & G space division:  proc/nbgrp/npool/nimage =       6
     Subspace diagonalization in iterative solution of the eigenvalue problem:
     a serial algorithm will be used

     Using Slab Decomposition

     bravais-lattice index     =            0
     lattice parameter (alat)  =      14.7866  a.u.
     unit-cell volume          =    1143.0296 (a.u.)^3
     number of atoms/cell      =            8
     number of atomic types    =            5
     number of electrons       =        84.00
     number of Kohn-Sham states=           50
     kinetic-energy cutoff     =      30.0000  Ry
     charge density cutoff     =     150.0000  Ry
     scf convergence threshold =      1.0E-10
     mixing beta               =       0.7000
     number of iterations used =            8  plain     mixing
     energy convergence thresh.=      1.0E-05
     force convergence thresh. =      1.0E-04
     press convergence thresh. =      5.0E-01
     Exchange-correlation= SLA  PW   PBX  PBC
                           (   1   4   3   4   0   0   0)
     nstep                     =           50

     celldm(1)=  14.786571  celldm(2)=   0.000000  celldm(3)=   0.000000
     celldm(4)=   0.000000  celldm(5)=   0.000000  celldm(6)=   0.000000

     crystal axes: (cart. coord. in units of alat)
               a(1) = (   1.000000   0.000000   0.000000 )
               a(2) = (   0.500000   0.866025   0.000000 )
               a(3) = (   0.250000   0.144338   0.408248 )

     reciprocal axes: (cart. coord. in units 2 pi/alat)
               b(1) = (  1.000000 -0.577350 -0.408248 )
               b(2) = (  0.000000  1.154700 -0.408248 )
               b(3) = (  0.000000  0.000000  2.449490 )

     PseudoPot. # 1 for Mn read from file:
     ./../../../pseudos/Mn.pbe-spn-kjpaw_psl.0.3.1.UPF
     MD5 check sum: ba19e6d7ccbc12830efad05ba8577d9c
     Pseudo is Projector augmented-wave + core cor, Zval = 15.0
     Generated using &quot;atomic&quot; code by A. Dal Corso  v.6.2.2
     Shape of augmentation charge: PSQ
     Using radial grid of 1187 points,  6 beta functions with:
                l(1) =   0
                l(2) =   0
                l(3) =   1
                l(4) =   1
                l(5) =   2
                l(6) =   2
     Q(r) pseudized with 0 coefficients

[...]

     PseudoPot. # 5 for S  read from file:
     ./../../../pseudos/S.pbe-n-kjpaw_psl.1.0.0.UPF
     MD5 check sum: fb45dfebcf3e72a4e1bd4a866ec2e262
     Pseudo is Projector augmented-wave + core cor, Zval =  6.0
     Generated using &quot;atomic&quot; code by A. Dal Corso  v.6.3
     Shape of augmentation charge: PSQ
     Using radial grid of 1151 points,  6 beta functions with:
                l(1) =   0
                l(2) =   0
                l(3) =   1
                l(4) =   1
                l(5) =   2
                l(6) =   2
     Q(r) pseudized with 0 coefficients

     atomic species   valence    mass     pseudopotential
     Mn1              15.00    54.93800     Mn( 1.00)
     Mn2              15.00    54.93800     Mn( 1.00)
     Mn3              15.00    54.93800     Mn( 1.00)
     Mn4              15.00    54.93800     Mn( 1.00)
     S                 6.00    32.06500     S ( 1.00)

     Starting magnetic structure
     atomic species   magnetization
     Mn1             0.200
     Mn2             0.200
     Mn3            -0.200
     Mn4            -0.200
     S               0.000

     No symmetry found

                                    s                        frac. trans.

      isym =  1     identity

 cryst.   s( 1) = (     1          0          0      )
                  (     0          1          0      )
                  (     0          0          1      )

 cart.    s( 1) = (  1.0000000  0.0000000  0.0000000 )
                  (  0.0000000  1.0000000  0.0000000 )
                  (  0.0000000  0.0000000  1.0000000 )

   Cartesian axes

     site n.     atom                  positions (alat units)
         1        Mn1    tau(   1) = (   0.7465164   0.4349995   0.3076177  )
         2        Mn2    tau(   2) = (   0.9965165   0.8680123   0.3076176  )
         3        Mn3    tau(   3) = (   1.2465167   0.4349994   0.3076175  )
         4        Mn4    tau(   4) = (   1.4965166   0.8680121   0.3076176  )
         5        S      tau(   5) = (   0.7534833   1.0083762   0.4068170  )
         6        S      tau(   6) = (   0.5034833   0.5753635   0.4068170  )
         7        S      tau(   7) = (   1.2534834   1.0083762   0.4068169  )
         8        S      tau(   8) = (   1.0034834   0.5753634   0.4068170  )

   Crystallographic axes

     site n.     atom                  positions (cryst. coord.)
         1        Mn1    tau(   1) = (  0.3697850  0.3767098  0.7535064  )
         2        Mn2    tau(   2) = (  0.3697851  0.8767099  0.7535060  )
         3        Mn3    tau(   3) = (  0.8697854  0.3767098  0.7535059  )
         4        Mn4    tau(   4) = (  0.8697852  0.8767097  0.7535061  )
         5        S      tau(   5) = (  0.0052147  0.9982902  0.9964939  )
         6        S      tau(   6) = (  0.0052148  0.4982902  0.9964939  )
         7        S      tau(   7) = (  0.5052149  0.9982902  0.9964938  )
         8        S      tau(   8) = (  0.5052149  0.4982901  0.9964939  )

     number of k points=    23  Gaussian smearing, width (Ry)=  0.0100
                       cart. coord. in units 2pi/alat
        k(    1) = (   0.0000000   0.0000000   0.0000000), wk =   0.0222222
        k(    2) = (   0.0000000   0.0000000   0.4898979), wk =   0.0444444
        k(    3) = (   0.0000000   0.0000000   0.9797958), wk =   0.0444444
        k(    4) = (   0.0000000   0.3849002  -0.1360827), wk =   0.0444444
        k(    5) = (   0.0000000   0.3849002   0.3538152), wk =   0.0444444
        k(    6) = (   0.0000000   0.3849002   0.8437131), wk =   0.0444444
        k(    7) = (   0.0000000   0.3849002  -1.1158786), wk =   0.0444444
        k(    8) = (   0.0000000   0.3849002  -0.6259807), wk =   0.0444444
        k(    9) = (   0.3333333   0.1924501  -0.2721655), wk =   0.0444444
        k(   10) = (   0.3333333   0.1924501   0.2177324), wk =   0.0444444
        k(   11) = (   0.3333333   0.1924501   0.7076304), wk =   0.0444444
        k(   12) = (   0.3333333   0.1924501  -1.2519613), wk =   0.0444444
        k(   13) = (   0.3333333   0.1924501  -0.7620634), wk =   0.0444444
        k(   14) = (   0.3333333  -0.5773502   0.0000000), wk =   0.0444444
        k(   15) = (   0.3333333  -0.5773502   0.4898979), wk =   0.0444444
        k(   16) = (   0.3333333  -0.5773502   0.9797959), wk =   0.0444444
        k(   17) = (  -0.3333333   0.1924501   0.1360827), wk =   0.0444444
        k(   18) = (  -0.3333333   0.1924501  -0.3538152), wk =   0.0444444
        k(   19) = (  -0.3333333   0.1924501  -0.8437131), wk =   0.0444444
        k(   20) = (  -0.3333333   0.1924501   1.1158786), wk =   0.0444444
        k(   21) = (  -0.3333333   0.1924501   0.6259807), wk =   0.0444444
        k(   22) = (   0.3333333  -0.5773502  -0.4898979), wk =   0.0444444
        k(   23) = (   0.3333333  -0.5773502  -0.9797958), wk =   0.0444444

                       cryst. coord.
        k(    1) = (   0.0000000   0.0000000   0.0000000), wk =   0.0222222
        k(    2) = (   0.0000000   0.0000000   0.2000000), wk =   0.0444444
        k(    3) = (   0.0000000   0.0000000   0.4000000), wk =   0.0444444
        k(    4) = (   0.0000000   0.3333333   0.0000000), wk =   0.0444444
        k(    5) = (   0.0000000   0.3333333   0.2000000), wk =   0.0444444
        k(    6) = (   0.0000000   0.3333333   0.4000000), wk =   0.0444444
        k(    7) = (   0.0000000   0.3333333  -0.4000000), wk =   0.0444444
        k(    8) = (   0.0000000   0.3333333  -0.2000000), wk =   0.0444444
        k(    9) = (   0.3333333   0.3333333   0.0000000), wk =   0.0444444
        k(   10) = (   0.3333333   0.3333333   0.2000000), wk =   0.0444444
        k(   11) = (   0.3333333   0.3333333   0.4000000), wk =   0.0444444
        k(   12) = (   0.3333333   0.3333333  -0.4000000), wk =   0.0444444
        k(   13) = (   0.3333333   0.3333333  -0.2000000), wk =   0.0444444
        k(   14) = (   0.3333333  -0.3333333   0.0000000), wk =   0.0444444
        k(   15) = (   0.3333333  -0.3333333   0.2000000), wk =   0.0444444
        k(   16) = (   0.3333333  -0.3333333   0.4000000), wk =   0.0444444
        k(   17) = (  -0.3333333   0.0000000  -0.0000000), wk =   0.0444444
        k(   18) = (  -0.3333333   0.0000000  -0.2000000), wk =   0.0444444
        k(   19) = (  -0.3333333   0.0000000  -0.4000000), wk =   0.0444444
        k(   20) = (  -0.3333333   0.0000000   0.4000000), wk =   0.0444444
        k(   21) = (  -0.3333333   0.0000000   0.2000000), wk =   0.0444444
        k(   22) = (   0.3333333  -0.3333333  -0.2000000), wk =   0.0444444
        k(   23) = (   0.3333333  -0.3333333  -0.4000000), wk =   0.0444444

     Check: negative core charge=   -0.000238
     Generating pointlists ...
     new r_m :   0.1228 (alat units)  1.8156 (a.u.) for type    1
     new r_m :   0.1228 (alat units)  1.8156 (a.u.) for type    2
     new r_m :   0.1228 (alat units)  1.8156 (a.u.) for type    3
     new r_m :   0.1228 (alat units)  1.8156 (a.u.) for type    4
     new r_m :   0.1228 (alat units)  1.8156 (a.u.) for type    5

     Initial potential from superposition of free atoms

     starting charge      83.9979, renormalised to      84.0000
     Starting wfcs are   56 randomized atomic wfcs
     Checking if some PAW data can be deallocated...

     Self-consistent Calculation

     iteration #  1     ecut=    30.00 Ry     beta= 0.70
     Davidson diagonalization with overlap

     ethr =  1.00E-02,  avg # of iterations =  2.0

     Threshold (ethr) on eigenvalues was too large:
     Diagonalizing with lowered threshold

     Davidson diagonalization with overlap

[...]

     total energy              =   -1411.02631055 Ry
     estimated scf accuracy    <       0.27049693 Ry

     total magnetization       =    -0.00 Bohr mag/cell
     absolute magnetization    =    16.24 Bohr mag/cell

[...]

     c_bands:  1 eigenvalues not converged
     ethr =  3.50E-06,  avg # of iterations =  3.3

[...]

     Magnetic moment per site  (integrated on atomic sphere of radius R)
     atom   1 (R=0.123)  charge= 12.7882  magn=  3.8618
     atom   2 (R=0.123)  charge= 12.7882  magn=  3.8618
     atom   3 (R=0.123)  charge= 12.7882  magn= -3.8618
[...]
         6        S      tau(   6) = (  0.0028310  0.4989491  0.9980087  )
         7        S      tau(   7) = (  0.5028310  0.9989494  0.9980084  )
         8        S      tau(   8) = (  0.5028310  0.4989492  0.9980086  )

     number of k points=    23  Gaussian smearing, width (Ry)=  0.0100
                       cart. coord. in units 2pi/alat
        k(    1) = (   0.0000000   0.0000000   0.0000000), wk =   0.0222222
        k(    2) = (  -0.0034852   0.0014580   0.5245938), wk =   0.0444444
        k(    3) = (  -0.0069704   0.0029161   1.0491876), wk =   0.0444444
        k(    4) = (  -0.0026139   0.4127064  -0.1445746), wk =   0.0444444
        k(    5) = (  -0.0060991   0.4141645   0.3800191), wk =   0.0444444
        k(    6) = (  -0.0095843   0.4156225   0.9046129), wk =   0.0444444
        k(    7) = (   0.0043565   0.4097903  -1.1937622), wk =   0.0444444
        k(    8) = (   0.0008713   0.4112484  -0.6691684), wk =   0.0444444
        k(    9) = (   0.3615287   0.2026437  -0.2932398), wk =   0.0444444
        k(   10) = (   0.3580435   0.2041018   0.2313540), wk =   0.0444444
        k(   11) = (   0.3545583   0.2055598   0.7559478), wk =   0.0444444
        k(   12) = (   0.3684991   0.1997276  -1.3424273), wk =   0.0444444
        k(   13) = (   0.3650139   0.2011857  -0.8178336), wk =   0.0444444
        k(   14) = (   0.3667565  -0.6227691  -0.0040905), wk =   0.0444444
        k(   15) = (   0.3632713  -0.6213111   0.5205033), wk =   0.0444444
        k(   16) = (   0.3597861  -0.6198530   1.0450971), wk =   0.0444444
        k(   17) = (  -0.3641426   0.2100627   0.1486651), wk =   0.0444444
        k(   18) = (  -0.3606574   0.2086047  -0.3759287), wk =   0.0444444
        k(   19) = (  -0.3571722   0.2071466  -0.9005224), wk =   0.0444444
        k(   20) = (  -0.3711130   0.2129788   1.1978527), wk =   0.0444444
        k(   21) = (  -0.3676278   0.2115208   0.6732589), wk =   0.0444444
        k(   22) = (   0.3702417  -0.6242272  -0.5286843), wk =   0.0444444
        k(   23) = (   0.3737269  -0.6256852  -1.0532781), wk =   0.0444444

                       cryst. coord.
        k(    1) = (   0.0000000   0.0000000   0.0000000), wk =   0.0222222
        k(    2) = (   0.0000000  -0.0000000   0.2000000), wk =   0.0444444
        k(    3) = (   0.0000000  -0.0000000   0.4000000), wk =   0.0444444
        k(    4) = (  -0.0000000   0.3333333  -0.0000000), wk =   0.0444444
        k(    5) = (  -0.0000000   0.3333333   0.2000000), wk =   0.0444444
        k(    6) = (  -0.0000000   0.3333333   0.4000000), wk =   0.0444444
        k(    7) = (  -0.0000000   0.3333333  -0.4000000), wk =   0.0444444
        k(    8) = (  -0.0000000   0.3333333  -0.2000000), wk =   0.0444444
        k(    9) = (   0.3333333   0.3333333   0.0000000), wk =   0.0444444
        k(   10) = (   0.3333333   0.3333333   0.2000000), wk =   0.0444444
        k(   11) = (   0.3333333   0.3333333   0.4000000), wk =   0.0444444
        k(   12) = (   0.3333333   0.3333333  -0.4000000), wk =   0.0444444
        k(   13) = (   0.3333333   0.3333333  -0.2000000), wk =   0.0444444
        k(   14) = (   0.3333333  -0.3333333   0.0000000), wk =   0.0444444
        k(   15) = (   0.3333333  -0.3333333   0.2000000), wk =   0.0444444
        k(   16) = (   0.3333333  -0.3333333   0.4000000), wk =   0.0444444
        k(   17) = (  -0.3333333   0.0000000   0.0000000), wk =   0.0444444
        k(   18) = (  -0.3333333  -0.0000000  -0.2000000), wk =   0.0444444
        k(   19) = (  -0.3333333  -0.0000000  -0.4000000), wk =   0.0444444
        k(   20) = (  -0.3333333  -0.0000000   0.4000000), wk =   0.0444444
        k(   21) = (  -0.3333333   0.0000000   0.2000000), wk =   0.0444444
        k(   22) = (   0.3333333  -0.3333333  -0.2000000), wk =   0.0444444
        k(   23) = (   0.3333333  -0.3333333  -0.4000000), wk =   0.0444444

     Check: negative core charge=   -0.000250
     Generating pointlists ...

     Initial potential from superposition of free atoms

     starting charge      83.9979, renormalised to      84.0000
     Starting wfcs are   56 randomized atomic wfcs
     Checking if some PAW data can be deallocated...

     Self-consistent Calculation

[...]

     c_bands:  1 eigenvalues not converged
     c_bands:  1 eigenvalues not converged
     c_bands:  1 eigenvalues not converged
     c_bands:  1 eigenvalues not converged
     c_bands:  2 eigenvalues not converged
     c_bands:  1 eigenvalues not converged
     c_bands:  1 eigenvalues not converged
     c_bands:  1 eigenvalues not converged
     c_bands:  2 eigenvalues not converged
     c_bands:  3 eigenvalues not converged
     c_bands:  1 eigenvalues not converged
     c_bands:  1 eigenvalues not converged
     c_bands:  3 eigenvalues not converged
     c_bands:  1 eigenvalues not converged
     c_bands:  2 eigenvalues not converged
     c_bands:  2 eigenvalues not converged
     c_bands:  1 eigenvalues not converged
     c_bands:  1 eigenvalues not converged
     c_bands:  1 eigenvalues not converged
     c_bands:  1 eigenvalues not converged
     c_bands:  2 eigenvalues not converged
     c_bands:  2 eigenvalues not converged
     c_bands:  1 eigenvalues not converged
     c_bands:  1 eigenvalues not converged
     c_bands:  2 eigenvalues not converged
     c_bands:  3 eigenvalues not converged
     c_bands:  1 eigenvalues not converged
     c_bands:  3 eigenvalues not converged
     c_bands:  4 eigenvalues not converged
     c_bands:  1 eigenvalues not converged
     c_bands:  1 eigenvalues not converged
     c_bands:  3 eigenvalues not converged
     c_bands:  1 eigenvalues not converged
     c_bands:  2 eigenvalues not converged
     c_bands:  2 eigenvalues not converged
     c_bands:  1 eigenvalues not converged
     c_bands:  1 eigenvalues not converged
     c_bands:  1 eigenvalues not converged
     ethr =  1.00E-06,  avg # of iterations = 19.6

[...]

     total energy              =   -1411.02749969 Ry
     estimated scf accuracy    <          2.0E-12 Ry

[...]

     iteration # 25     ecut=    30.00 Ry     beta= 0.70
     Davidson diagonalization with overlap

     ethr =  1.00E-13,  avg # of iterations =  1.0

     Magnetic moment per site  (integrated on atomic sphere of radius R)
     atom   1 (R=0.114)  charge= 12.6018  magn=  3.1405
     atom   2 (R=0.114)  charge= 12.6019  magn=  3.1405
     atom   3 (R=0.114)  charge= 12.6019  magn= -3.1405
     atom   4 (R=0.114)  charge= 12.6019  magn= -3.1405
     atom   5 (R=0.114)  charge=  3.5490  magn= -0.0286
     atom   6 (R=0.114)  charge=  3.5490  magn= -0.0286
     atom   7 (R=0.114)  charge=  3.5490  magn=  0.0286
     atom   8 (R=0.114)  charge=  3.5490  magn=  0.0286

     End of self-consistent calculation

 ------ SPIN UP ------------

[...]

 ------ SPIN DOWN ----------

[...]

          k =-0.3676 0.2115 0.6733 (  2547 PWs)   bands (ev):

[...]

          k = 0.3737-0.6257-1.0533 (  2558 PWs)   bands (ev):

   -71.1352 -71.1352 -67.4664 -67.4663 -39.9265 -39.9259 -39.9234 -39.9204
   -39.8058 -39.8055 -36.2972 -36.2968 -36.2677 -36.2662 -36.2636 -36.2605
    -3.6177  -3.2578  -3.2347  -3.1518   4.3732   4.4832   4.5938   4.7166
     5.0288   5.3145   5.3504   5.6522   5.8948   5.9528   6.2202   6.2664
     7.5925   7.8729   8.1344   8.3249   8.5916   8.7148   8.8844   9.2711
     9.2804   9.8582  10.4461  10.8569  11.2190  11.3134  11.7841  11.8899
    11.9290  12.2093

     occupation numbers
     1.0000   1.0000   1.0000   1.0000   1.0000   1.0000   1.0000   1.0000
     1.0000   1.0000   1.0000   1.0000   1.0000   1.0000   1.0000   1.0000
     1.0000   1.0000   1.0000   1.0000   1.0000   1.0000   1.0000   1.0000
     1.0000   1.0000   1.0000   1.0000   1.0000   1.0000   1.0000   1.0000
     1.0000   1.0000   1.0000   1.0000   1.0000   1.0000   1.0000   1.0000
     1.0000   1.0000   0.5172   0.0000   0.0000   0.0000   0.0000   0.0000
     0.0000   0.0000

     the Fermi energy is    10.4503 ev

!    total energy              =   -1411.02749969 Ry
     total all-electron energy =    -12462.461114 Ry
     estimated scf accuracy    <          4.1E-13 Ry
     smearing contrib. (-TS)   =      -0.00176977 Ry
     internal energy E=F+TS    =   -1411.02572992 Ry

     The total energy is F=E-TS. E is the sum of the following terms:
     one-electron contribution =    -547.23296491 Ry
     hartree contribution      =     315.84032453 Ry
     xc contribution           =    -132.75302555 Ry
     ewald contribution        =    -551.81231353 Ry
     one-center paw contrib.   =    -495.06775047 Ry
      -> PAW hartree energy AE =     358.94395255 Ry
      -> PAW hartree energy PS =    -360.85735311 Ry
      -> PAW xc energy AE      =    -209.31601397 Ry
      -> PAW xc energy PS      =      55.98029950 Ry
      -> total E_H with PAW    =     313.92692397 Ry
      -> total E_XC with PAW   =    -286.08874001 Ry

     total magnetization       =    -0.00 Bohr mag/cell
     absolute magnetization    =    15.07 Bohr mag/cell

     convergence has been achieved in  25 iterations

     Forces acting on atoms (cartesian axes, Ry/au):

     atom    1 type  1   force =     0.00035404    0.00000353   -0.00019212
     atom    2 type  2   force =     0.00035396    0.00000442   -0.00019239
     atom    3 type  3   force =     0.00035499    0.00000310   -0.00019263
     atom    4 type  4   force =     0.00035464    0.00000362   -0.00019259
     atom    5 type  5   force =    -0.00035419   -0.00000406    0.00019244
     atom    6 type  5   force =    -0.00035405   -0.00000356    0.00019220
     atom    7 type  5   force =    -0.00035465   -0.00000371    0.00019258
     atom    8 type  5   force =    -0.00035475   -0.00000333    0.00019250
     The non-local contrib.  to forces
     atom    1 type  1   force =    -0.00753068    0.00479342    0.00375683
     atom    2 type  2   force =    -0.00753053    0.00479285    0.00375694
     atom    3 type  3   force =    -0.00753174    0.00479424    0.00375717
     atom    4 type  4   force =    -0.00753170    0.00479327    0.00375749
     atom    5 type  5   force =    -0.00680059    0.00446509    0.00290000
     atom    6 type  5   force =    -0.00680042    0.00446591    0.00289960
     atom    7 type  5   force =    -0.00680067    0.00446531    0.00289997
     atom    8 type  5   force =    -0.00680076    0.00446591    0.00289980
     The ionic contribution  to forces
     atom    1 type  1   force =     0.60206564   -0.33928789   -0.24434032
     atom    2 type  2   force =     0.60206317   -0.33925826   -0.24434964
     atom    3 type  3   force =     0.60213402   -0.33933224   -0.24436683
     atom    4 type  4   force =     0.60213991   -0.33929867   -0.24438194
     atom    5 type  5   force =    -0.60208782    0.33929107    0.24435318
     atom    6 type  5   force =    -0.60208401    0.33928170    0.24435486
     atom    7 type  5   force =    -0.60211199    0.33930559    0.24436251
     atom    8 type  5   force =    -0.60211893    0.33929872    0.24436818
     The local contribution  to forces
     atom    1 type  1   force =    -0.60073525    0.33822009    0.24309776
     atom    2 type  2   force =    -0.60073323    0.33819067    0.24310724
     atom    3 type  3   force =    -0.60080193    0.33826284    0.24312373
     atom    4 type  4   force =    -0.60080748    0.33823030    0.24313830
     atom    5 type  5   force =     0.60789037   -0.34338181   -0.24679796
     atom    6 type  5   force =     0.60788665   -0.34337210   -0.24679980
     atom    7 type  5   force =     0.60791386   -0.34339587   -0.24680706
     atom    8 type  5   force =     0.60792065   -0.34338870   -0.24681275
     The core correction contribution to forces
     atom    1 type  1   force =     0.00665269   -0.00378518   -0.00275190
     atom    2 type  2   force =     0.00665254   -0.00378502   -0.00275187
     atom    3 type  3   force =     0.00665312   -0.00378547   -0.00275209
     atom    4 type  4   force =     0.00665293   -0.00378529   -0.00275204
     atom    5 type  5   force =     0.00074250   -0.00044264   -0.00030807
     atom    6 type  5   force =     0.00074249   -0.00044265   -0.00030806
     atom    7 type  5   force =     0.00074251   -0.00044265   -0.00030807
     atom    8 type  5   force =     0.00074251   -0.00044266   -0.00030807
     The Hubbard contrib.    to forces
     atom    1 type  1   force =     0.00000000    0.00000000    0.00000000
     atom    2 type  2   force =     0.00000000    0.00000000    0.00000000
     atom    3 type  3   force =     0.00000000    0.00000000    0.00000000
     atom    4 type  4   force =     0.00000000    0.00000000    0.00000000
     atom    5 type  5   force =     0.00000000    0.00000000    0.00000000
     atom    6 type  5   force =     0.00000000    0.00000000    0.00000000
     atom    7 type  5   force =     0.00000000    0.00000000    0.00000000
     atom    8 type  5   force =     0.00000000    0.00000000    0.00000000
     The SCF correction term to forces
     atom    1 type  1   force =     0.00000014   -0.00000068    0.00000015
     atom    2 type  2   force =     0.00000049    0.00000041   -0.00000044
     atom    3 type  3   force =     0.00000000   -0.00000004    0.00000002
     atom    4 type  4   force =    -0.00000052    0.00000024    0.00000022
     atom    5 type  5   force =    -0.00000014    0.00000046   -0.00000007
     atom    6 type  5   force =    -0.00000027   -0.00000019    0.00000024
     atom    7 type  5   force =     0.00000013    0.00000014   -0.00000013
     atom    8 type  5   force =     0.00000026   -0.00000037   -0.00000003

     Total force =     0.001141     Total SCF correction =     0.000001

     Computing stress (Cartesian axis) and pressure

          total   stress  (Ry/bohr**3)                   (kbar)     P=     -343.27
  -0.00238111   0.00005445   0.00004277         -350.27        8.01        6.29
   0.00005445  -0.00231591  -0.00001586            8.01     -340.68       -2.33
   0.00004277  -0.00001586  -0.00230353            6.29       -2.33     -338.86

     kinetic stress (kbar)  19623.24    -30.95    -20.84
                              -30.95  19591.97     13.76
                              -20.84     13.76  19578.92

     local   stress (kbar)  -1137.00   1578.09   1093.36
                             1578.09    674.26   -675.83
                             1093.36   -675.83   1160.13

     nonloc. stress (kbar)  -1233.46     16.44     11.87
                               16.44  -1213.68     -7.29
                               11.87     -7.29  -1208.60

     hartree stress (kbar)  17351.32   -546.45   -378.73
                             -546.45  16729.69    232.27
                             -378.73    232.27  16560.83

     exc-cor stress (kbar)  -2983.35     -2.55     -1.77
                               -2.55  -2986.29      1.08
                               -1.77      1.08  -2987.12

     corecor stress (kbar)  -3357.72     -0.36      0.02
                               -0.36  -3357.66      0.40
                                0.02      0.40  -3357.70

     ewald   stress (kbar) -28613.29  -1006.21   -697.62
                            -1006.21 -29778.98    433.28
                             -697.62    433.28 -30085.33

     hubbard stress (kbar)      0.00      0.00      0.00
                                0.00      0.00      0.00
                                0.00      0.00      0.00

     DFT-D   stress (kbar)      0.00      0.00      0.00
                                0.00      0.00      0.00
                                0.00      0.00      0.00

     XDM     stress (kbar)      0.00      0.00      0.00
                                0.00      0.00      0.00
                                0.00      0.00      0.00

     dft-nl  stress (kbar)      0.00      0.00      0.00
                                0.00      0.00      0.00
                                0.00      0.00      0.00

     TS-vdW  stress (kbar)      0.00      0.00      0.00
                                0.00      0.00      0.00
                                0.00      0.00      0.00

     MDB     stress (kbar)      0.00      0.00      0.00
                                0.00      0.00      0.00
                                0.00      0.00      0.00

     3D-RISM stress (kbar)      0.00      0.00      0.00
                                0.00      0.00      0.00
                                0.00      0.00      0.00

     Writing all to output data dir ./temp/mns.save/ :
     XML data file, charge density, pseudopotentials, collected wavefunctions

     General routines

     Parallel routines

     PAW routines

   This run was terminated on:  20:11: 8  20Jan2025

   JOB DONE.