     Program PWSCF v.7.3.1 starts on 17Jan2025 at 23:17:25

     Reading input from relax.in

     Current dimensions of program PWSCF are:
     Max number of different atomic species (ntypx) = 10
     Max number of k-points (npk) =  40000
     Max angular momentum in pseudopotentials (lmaxx) =  4
     file Mn.pbe-spn-kjpaw_psl.0.3.1.UPF: wavefunction(s)  3P 3D renormalized
     file Mn.pbe-spn-kjpaw_psl.0.3.1.UPF: wavefunction(s)  3P 3D renormalized
     file S.pbe-n-kjpaw_psl.1.0.0.UPF: wavefunction(s)  3S 3P renormalized
     Message from routine setup:
     using ibrav=0 with symmetry is DISCOURAGED, use correct ibrav instead

     R & G space division:  proc/nbgrp/npool/nimage =       4
     Subspace diagonalization in iterative solution of the eigenvalue problem:
     a serial algorithm will be used

     Using Slab Decomposition

     bravais-lattice index     =            0
     lattice parameter (alat)  =      14.7866  a.u.
     unit-cell volume          =     571.5148 (a.u.)^3
     number of atoms/cell      =            4
     number of atomic types    =            3
     number of electrons       =        42.00
     number of Kohn-Sham states=           25
     kinetic-energy cutoff     =      30.0000  Ry
     charge density cutoff     =     150.0000  Ry
     scf convergence threshold =      1.0E-10
     mixing beta               =       0.7000
     number of iterations used =            8  plain     mixing
     energy convergence thresh.=      1.0E-05
     force convergence thresh. =      1.0E-04
     Exchange-correlation= SLA  PW   PBX  PBC
                           (   1   4   3   4   0   0   0)
     nstep                     =           50

     celldm(1)=  14.786571  celldm(2)=   0.000000  celldm(3)=   0.000000
     celldm(4)=   0.000000  celldm(5)=   0.000000  celldm(6)=   0.000000

     crystal axes: (cart. coord. in units of alat)
               a(1) = (   1.000000   0.000000   0.000000 )
               a(2) = (   0.250000   0.433013   0.000000 )
               a(3) = (   0.250000   0.144338   0.408248 )

     reciprocal axes: (cart. coord. in units 2 pi/alat)
               b(1) = (  1.000000 -0.577350 -0.408248 )
               b(2) = (  0.000000  2.309401 -0.816496 )
               b(3) = (  0.000000  0.000000  2.449490 )

     PseudoPot. # 1 for Mn read from file:
     ./../../../pseudos/Mn.pbe-spn-kjpaw_psl.0.3.1.UPF
     MD5 check sum: ba19e6d7ccbc12830efad05ba8577d9c
     Pseudo is Projector augmented-wave + core cor, Zval = 15.0
     Generated using &quot;atomic&quot; code by A. Dal Corso  v.6.2.2
     Shape of augmentation charge: PSQ
     Using radial grid of 1187 points,  6 beta functions with:
                l(1) =   0
                l(2) =   0
                l(3) =   1
                l(4) =   1
                l(5) =   2
                l(6) =   2
     Q(r) pseudized with 0 coefficients

     PseudoPot. # 2 for Mn read from file:
     ./../../../pseudos/Mn.pbe-spn-kjpaw_psl.0.3.1.UPF
     MD5 check sum: ba19e6d7ccbc12830efad05ba8577d9c
     Pseudo is Projector augmented-wave + core cor, Zval = 15.0
     Generated using &quot;atomic&quot; code by A. Dal Corso  v.6.2.2
     Shape of augmentation charge: PSQ
     Using radial grid of 1187 points,  6 beta functions with:
                l(1) =   0
                l(2) =   0
                l(3) =   1
                l(4) =   1
                l(5) =   2
                l(6) =   2
     Q(r) pseudized with 0 coefficients

     PseudoPot. # 3 for S  read from file:
     ./../../../pseudos/S.pbe-n-kjpaw_psl.1.0.0.UPF
     MD5 check sum: fb45dfebcf3e72a4e1bd4a866ec2e262
     Pseudo is Projector augmented-wave + core cor, Zval =  6.0
     Generated using &quot;atomic&quot; code by A. Dal Corso  v.6.3
     Shape of augmentation charge: PSQ
     Using radial grid of 1151 points,  6 beta functions with:
                l(1) =   0
                l(2) =   0
                l(3) =   1
                l(4) =   1
                l(5) =   2
                l(6) =   2
     Q(r) pseudized with 0 coefficients

     atomic species   valence    mass     pseudopotential
     Mn1              15.00    54.93800     Mn( 1.00)
     Mn2              15.00    54.93800     Mn( 1.00)
     S                 6.00    32.06500     S ( 1.00)

     Starting magnetic structure
     atomic species   magnetization
     Mn1             0.200
     Mn2             0.200
     S               0.000

      2 Sym. Ops. (no inversion) found

                                    s                        frac. trans.

      isym =  1     identity

 cryst.   s( 1) = (     1          0          0      )
                  (     0          1          0      )
                  (     0          0          1      )

 cart.    s( 1) = (  1.0000000  0.0000000  0.0000000 )
                  (  0.0000000  1.0000000  0.0000000 )
                  (  0.0000000  0.0000000  1.0000000 )

      isym =  2     inv. 180 deg rotation - cryst. axis [1,1,0]

 cryst.   s( 2) = (     1         -2          0      )
                  (     0         -1          0      )
                  (     0         -1          1      )

 cart.    s( 2) = (  0.5000001 -0.8660253 -0.0000000 )
                  ( -0.8660254 -0.5000001 -0.0000001 )
                  (  0.0000000  0.0000000  1.0000000 )

   Cartesian axes

     site n.     atom                  positions (alat units)
         1        Mn1    tau(   1) = (   0.7500000   0.4330127   0.3061862  )
         2        Mn2    tau(   2) = (   1.2500000   0.4330127   0.3061862  )
         3        S      tau(   3) = (   0.0000000   0.0000000   0.0000000  )
         4        S      tau(   4) = (   0.5000000   0.0000000   0.0000000  )

   Crystallographic axes

     site n.     atom                  positions (cryst. coord.)
         1        Mn1    tau(   1) = (  0.3750000  0.7500000  0.7500000  )
         2        Mn2    tau(   2) = (  0.8750000  0.7500000  0.7500000  )
         3        S      tau(   3) = (  0.0000000  0.0000000  0.0000000  )
         4        S      tau(   4) = (  0.5000000  0.0000000  0.0000000  )

     number of k points=    38  Gaussian smearing, width (Ry)=  0.0100
                       cart. coord. in units 2pi/alat
        k(    1) = (   0.0000000   0.0000000   0.0000000), wk =   0.0133333
        k(    2) = (   0.0000000   0.0000000   0.4898979), wk =   0.0266667
        k(    3) = (   0.0000000   0.0000000   0.9797958), wk =   0.0266667
        k(    4) = (   0.0000000   0.4618802  -0.1632993), wk =   0.0266667
        k(    5) = (   0.0000000   0.4618802   0.3265986), wk =   0.0266667
        k(    6) = (   0.0000000   0.4618802   0.8164966), wk =   0.0266667
        k(    7) = (   0.0000000   0.4618802  -1.1430951), wk =   0.0266667
        k(    8) = (   0.0000000   0.4618802  -0.6531972), wk =   0.0266667
        k(    9) = (   0.0000000   0.9237604  -0.3265986), wk =   0.0266667
        k(   10) = (   0.0000000   0.9237604   0.1632993), wk =   0.0266667
        k(   11) = (   0.0000000   0.9237604   0.6531973), wk =   0.0266667
        k(   12) = (   0.0000000   0.9237604  -1.3063944), wk =   0.0266667
        k(   13) = (   0.0000000   0.9237604  -0.8164965), wk =   0.0266667
        k(   14) = (   0.3333333  -0.1924501  -0.1360827), wk =   0.0266667
        k(   15) = (   0.3333333  -0.1924501   0.3538152), wk =   0.0266667
        k(   16) = (   0.3333333  -0.1924501   0.8437131), wk =   0.0266667
        k(   17) = (   0.3333333  -0.1924501  -1.1158786), wk =   0.0266667
        k(   18) = (   0.3333333  -0.1924501  -0.6259807), wk =   0.0266667
        k(   19) = (   0.3333333   0.2694301  -0.2993820), wk =   0.0266667
        k(   20) = (   0.3333333   0.2694301   0.1905159), wk =   0.0266667
        k(   21) = (   0.3333333   0.2694301   0.6804138), wk =   0.0266667
        k(   22) = (   0.3333333   0.2694301  -1.2791779), wk =   0.0266667
        k(   23) = (   0.3333333   0.2694301  -0.7892800), wk =   0.0266667
        k(   24) = (   0.3333333   0.7313103  -0.4626813), wk =   0.0266667
        k(   25) = (   0.3333333   0.7313103   0.0272166), wk =   0.0266667
        k(   26) = (   0.3333333   0.7313103   0.5171145), wk =   0.0266667
        k(   27) = (   0.3333333   0.7313103  -1.4424772), wk =   0.0266667
        k(   28) = (   0.3333333   0.7313103  -0.9525793), wk =   0.0266667
        k(   29) = (   0.3333333  -1.1162105   0.1905158), wk =   0.0266667
        k(   30) = (   0.3333333  -1.1162105   0.6804138), wk =   0.0266667
        k(   31) = (   0.3333333  -1.1162105   1.1703117), wk =   0.0266667
        k(   32) = (   0.3333333  -1.1162105  -0.7892800), wk =   0.0266667
        k(   33) = (   0.3333333  -1.1162105  -0.2993821), wk =   0.0266667
        k(   34) = (   0.3333333  -0.6543303   0.0272165), wk =   0.0266667
        k(   35) = (   0.3333333  -0.6543303   0.5171145), wk =   0.0266667
        k(   36) = (   0.3333333  -0.6543303   1.0070124), wk =   0.0266667
        k(   37) = (   0.3333333  -0.6543303  -0.9525793), wk =   0.0266667
        k(   38) = (   0.3333333  -0.6543303  -0.4626814), wk =   0.0266667

                       cryst. coord.
        k(    1) = (   0.0000000   0.0000000   0.0000000), wk =   0.0133333
        k(    2) = (   0.0000000   0.0000000   0.2000000), wk =   0.0266667
        k(    3) = (   0.0000000   0.0000000   0.4000000), wk =   0.0266667
        k(    4) = (   0.0000000   0.2000000   0.0000000), wk =   0.0266667
        k(    5) = (   0.0000000   0.2000000   0.2000000), wk =   0.0266667
        k(    6) = (   0.0000000   0.2000000   0.4000000), wk =   0.0266667
        k(    7) = (   0.0000000   0.2000000  -0.4000000), wk =   0.0266667
        k(    8) = (   0.0000000   0.2000000  -0.2000000), wk =   0.0266667
        k(    9) = (   0.0000000   0.4000000   0.0000000), wk =   0.0266667
        k(   10) = (   0.0000000   0.4000000   0.2000000), wk =   0.0266667
        k(   11) = (   0.0000000   0.4000000   0.4000000), wk =   0.0266667
        k(   12) = (   0.0000000   0.4000000  -0.4000000), wk =   0.0266667
        k(   13) = (   0.0000000   0.4000000  -0.2000000), wk =   0.0266667
        k(   14) = (   0.3333333  -0.0000000  -0.0000000), wk =   0.0266667
        k(   15) = (   0.3333333  -0.0000000   0.2000000), wk =   0.0266667
        k(   16) = (   0.3333333  -0.0000000   0.4000000), wk =   0.0266667
        k(   17) = (   0.3333333  -0.0000000  -0.4000000), wk =   0.0266667
        k(   18) = (   0.3333333  -0.0000000  -0.2000000), wk =   0.0266667
        k(   19) = (   0.3333333   0.2000000  -0.0000000), wk =   0.0266667
        k(   20) = (   0.3333333   0.2000000   0.2000000), wk =   0.0266667
        k(   21) = (   0.3333333   0.2000000   0.4000000), wk =   0.0266667
        k(   22) = (   0.3333333   0.2000000  -0.4000000), wk =   0.0266667
        k(   23) = (   0.3333333   0.2000000  -0.2000000), wk =   0.0266667
        k(   24) = (   0.3333333   0.4000000   0.0000000), wk =   0.0266667
        k(   25) = (   0.3333333   0.4000000   0.2000000), wk =   0.0266667
        k(   26) = (   0.3333333   0.4000000   0.4000000), wk =   0.0266667
        k(   27) = (   0.3333333   0.4000000  -0.4000000), wk =   0.0266667
        k(   28) = (   0.3333333   0.4000000  -0.2000000), wk =   0.0266667
        k(   29) = (   0.3333333  -0.4000000   0.0000000), wk =   0.0266667
        k(   30) = (   0.3333333  -0.4000000   0.2000000), wk =   0.0266667
        k(   31) = (   0.3333333  -0.4000000   0.4000000), wk =   0.0266667
        k(   32) = (   0.3333333  -0.4000000  -0.4000000), wk =   0.0266667
        k(   33) = (   0.3333333  -0.4000000  -0.2000000), wk =   0.0266667
        k(   34) = (   0.3333333  -0.2000000  -0.0000000), wk =   0.0266667
        k(   35) = (   0.3333333  -0.2000000   0.2000000), wk =   0.0266667
        k(   36) = (   0.3333333  -0.2000000   0.4000000), wk =   0.0266667
        k(   37) = (   0.3333333  -0.2000000  -0.4000000), wk =   0.0266667
        k(   38) = (   0.3333333  -0.2000000  -0.2000000), wk =   0.0266667

     Check: negative core charge=   -0.000237
     Generating pointlists ...
     new r_m :   0.1263 (alat units)  1.8676 (a.u.) for type    1
     new r_m :   0.1263 (alat units)  1.8676 (a.u.) for type    2
     new r_m :   0.1263 (alat units)  1.8676 (a.u.) for type    3

     Initial potential from superposition of free atoms

     starting charge      41.9989, renormalised to      42.0000
     Starting wfcs are   28 randomized atomic wfcs
     Checking if some PAW data can be deallocated...

     Self-consistent Calculation

     iteration #  1     ecut=    30.00 Ry     beta= 0.70
     Davidson diagonalization with overlap

     ethr =  1.00E-02,  avg # of iterations =  2.0

     Threshold (ethr) on eigenvalues was too large:
     Diagonalizing with lowered threshold

     Davidson diagonalization with overlap

[...]

     total energy              =    -705.44489494 Ry
     estimated scf accuracy    <       0.09659758 Ry

     total magnetization       =     7.42 Bohr mag/cell
     absolute magnetization    =     7.42 Bohr mag/cell

[...]

     c_bands:  1 eigenvalues not converged
     ethr =  4.10E-05,  avg # of iterations =  9.0

[...]

     Magnetic moment per site  (integrated on atomic sphere of radius R)
     atom   1 (R=0.126)  charge= 12.9157  magn=  3.4828
     atom   2 (R=0.126)  charge= 12.9157  magn=  3.4828
     atom   3 (R=0.126)  charge=  4.1016  magn= -0.0032
     atom   4 (R=0.126)  charge=  4.1016  magn= -0.0032

     End of self-consistent calculation

 ------ SPIN UP ------------

          k = 0.0000 0.0000 0.0000 (  1617 PWs)   bands (ev):

   -74.2066 -74.2060 -42.9323 -42.9294 -42.9292 -42.9291 -42.9268 -42.9266
    -6.3618  -5.6656   1.9591   2.9521   2.9534   2.9841   3.1763   3.1773
     4.8784   4.8822   5.0481   5.0524   5.3834   7.2685   7.2698   8.3173
     8.3186

     occupation numbers
     1.0000   1.0000   1.0000   1.0000   1.0000   1.0000   1.0000   1.0000
     1.0000   1.0000   1.0000   1.0000   1.0000   1.0000   1.0000   1.0000
     1.0000   1.0000   1.0000   1.0000   1.0000   1.0000   1.0000   0.0001
     0.0001

[...]

 ------ SPIN DOWN ----------

[...]

     the Fermi energy is     7.9511 ev

!    total energy              =    -705.47480021 Ry
     total all-electron energy =     -6231.191607 Ry
     estimated scf accuracy    <          4.4E-11 Ry
     smearing contrib. (-TS)   =      -0.00197451 Ry
     internal energy E=F+TS    =    -705.47282570 Ry

     The total energy is F=E-TS. E is the sum of the following terms:
     one-electron contribution =    -304.51564229 Ry
     hartree contribution      =     169.00653061 Ry
     xc contribution           =     -65.96280670 Ry
     ewald contribution        =    -256.51068425 Ry
     one-center paw contrib.   =    -247.49022306 Ry
      -> PAW hartree energy AE =     175.42373585 Ry
      -> PAW hartree energy PS =    -176.37838011 Ry
      -> PAW xc energy AE      =    -104.43789930 Ry
      -> PAW xc energy PS      =      27.77772886 Ry
      -> total E_H with PAW    =     168.05188635 Ry
      -> total E_XC with PAW   =    -142.62297714 Ry

[...]

     convergence has been achieved in  20 iterations

     Forces acting on atoms (cartesian axes, Ry/au):

     atom    1 type  1   force =    -0.00430476    0.00248535    0.00241075
     atom    2 type  2   force =    -0.00431894    0.00249354    0.00241642
     atom    3 type  3   force =     0.00431245   -0.00248979   -0.00241378
     atom    4 type  3   force =     0.00431125   -0.00248910   -0.00241338
     The non-local contrib.  to forces
     atom    1 type  1   force =    -0.02812357    0.01623715    0.01160404
     atom    2 type  2   force =    -0.02813276    0.01624246    0.01160807
     atom    3 type  3   force =     0.00666918   -0.00385045   -0.00253939
     atom    4 type  3   force =     0.00666732   -0.00384938   -0.00253867
     The ionic contribution  to forces
     atom    1 type  1   force =    -0.00000135   -0.00000078   -0.00000055
     atom    2 type  2   force =    -0.00000135   -0.00000078   -0.00000055
     atom    3 type  3   force =     0.00000135    0.00000078    0.00000055
     atom    4 type  3   force =     0.00000135    0.00000078    0.00000055
     The local contribution  to forces
     atom    1 type  1   force =     0.02067602   -0.01193629   -0.00799983
     atom    2 type  2   force =     0.02070233   -0.01195148   -0.00801134
     atom    3 type  3   force =    -0.00219925    0.00126848    0.00006624
     atom    4 type  3   force =    -0.00219765    0.00126756    0.00006561
     The core correction contribution to forces
     atom    1 type  1   force =     0.00311267   -0.00179710   -0.00117839
     atom    2 type  2   force =     0.00311282   -0.00179719   -0.00117853
     atom    3 type  3   force =    -0.00017603    0.00010163    0.00006487
     atom    4 type  3   force =    -0.00017599    0.00010161    0.00006485
     The Hubbard contrib.    to forces
     atom    1 type  1   force =     0.00000000    0.00000000    0.00000000
     atom    2 type  2   force =     0.00000000    0.00000000    0.00000000
     atom    3 type  3   force =     0.00000000    0.00000000    0.00000000
     atom    4 type  3   force =     0.00000000    0.00000000    0.00000000
     The SCF correction term to forces
     atom    1 type  1   force =     0.00001460   -0.00000843   -0.00000832
     atom    2 type  2   force =    -0.00001685    0.00000973    0.00000496
     atom    3 type  3   force =     0.00000068   -0.00000040    0.00000014
     atom    4 type  3   force =    -0.00000029    0.00000017    0.00000047

     Total force =     0.011066     Total SCF correction =     0.000028

     BFGS Geometry Optimization
     Energy error            =      0.0E+00 Ry
     Gradient error          =      4.3E-03 Ry/Bohr

     number of scf cycles    =   1
     number of bfgs steps    =   0

     energy             new  =    -705.4748002059 Ry

     new trust radius        =       0.0055416655 bohr
     new conv_thr            =            1.0E-10 Ry

ATOMIC_POSITIONS (crystal)
Mn1              0.3745452722        0.7502550499        0.7503993557
Mn2              0.8745438372        0.7502560155        0.7504002946
S                0.0004555047       -0.0002555756       -0.0003998582
S                0.5004553860       -0.0002554899       -0.0003997921

     Writing config-only to output data dir ./temp/mns.save/ :
     XML data file
     NEW-OLD atomic charge density approx. for the potential

     Check: negative core charge=   -0.000236
     Generating pointlists ...

[...]

     Total force =     0.009046     Total SCF correction =     0.000009
     Energy error            =      1.1E-04 Ry
     Gradient error          =      3.5E-03 Ry/Bohr

[...]

     energy             old  =    -705.4748002059 Ry
     energy             new  =    -705.4749115166 Ry

     CASE: energy            _new < energy            _old

     WARNING: bfgs curvature condition failed, Theta= 0.979
     new trust radius        =       0.0060958320 bohr
     new conv_thr            =            1.1E-11 Ry

[...]

     Check: negative core charge=   -0.000237
     Generating pointlists ...
     new r_m :   0.1247 (alat units)  1.8436 (a.u.) for type    1
     new r_m :   0.1247 (alat units)  1.8436 (a.u.) for type    2
     new r_m :   0.1247 (alat units)  1.8436 (a.u.) for type    3

[...]

     number of scf cycles    =   7
     number of bfgs steps    =   6

     energy             old  =    -705.4751274959 Ry
     energy             new  =    -705.4751277602 Ry

     CASE: energy            _new < energy            _old

     new trust radius        =       0.0007828448 bohr
     new conv_thr            =            1.0E-12 Ry

ATOMIC_POSITIONS (crystal)
Mn1              0.3724980992        0.7512898042        0.7524241930
Mn2              0.8724980892        0.7512897702        0.7524242810
S                0.0025021566       -0.0012899563       -0.0024244002
S                0.5025016551       -0.0012896180       -0.0024240738

     Writing config-only to output data dir ./temp/mns.save/ :
     XML data file
     NEW-OLD atomic charge density approx. for the potential

     Check: negative core charge=   -0.000237
     Generating pointlists ...

     Self-consistent Calculation

[...]

     Threshold (ethr) on eigenvalues was too large:
     Diagonalizing with lowered threshold

     Davidson diagonalization with overlap

[...]

     c_bands:  1 eigenvalues not converged
     ethr =  7.65E-13,  avg # of iterations =  6.5

[...]

     total energy              =    -705.47512797 Ry
     estimated scf accuracy    <          1.5E-12 Ry

[...]

     iteration # 15     ecut=    30.00 Ry     beta= 0.70
     Davidson diagonalization with overlap

     ethr =  1.00E-13,  avg # of iterations =  1.0

     Magnetic moment per site  (integrated on atomic sphere of radius R)
     atom   1 (R=0.125)  charge= 12.8591  magn=  3.4633
     atom   2 (R=0.125)  charge= 12.8591  magn=  3.4633
     atom   3 (R=0.125)  charge=  4.0146  magn= -0.0023
     atom   4 (R=0.125)  charge=  4.0146  magn= -0.0023

     End of self-consistent calculation

 ------ SPIN UP ------------

[...]

 ------ SPIN DOWN ----------

[...]

          k = 0.3333-0.6543-0.4627 (  1599 PWs)   bands (ev):

   -70.3064 -70.3064 -39.1874 -39.1861 -39.0382 -39.0377 -39.0321 -39.0320
    -5.8724  -5.6876   2.7832   3.0821   3.9759   4.0340   4.2003   4.2619
     7.8884   8.2368   8.5358   8.6989   8.7164   9.1726   9.4418   9.5449
     9.8181

     occupation numbers
     1.0000   1.0000   1.0000   1.0000   1.0000   1.0000   1.0000   1.0000
     1.0000   1.0000   1.0000   1.0000   1.0000   1.0000   1.0000   1.0000
     0.7402   0.0015   0.0000   0.0000   0.0000   0.0000   0.0000   0.0000
     0.0000

     the Fermi energy is     7.9503 ev

!    total energy              =    -705.47512797 Ry
     total all-electron energy =     -6231.191935 Ry
     estimated scf accuracy    <          4.4E-13 Ry
     smearing contrib. (-TS)   =      -0.00191126 Ry
     internal energy E=F+TS    =    -705.47321671 Ry

     The total energy is F=E-TS. E is the sum of the following terms:
     one-electron contribution =    -304.53224400 Ry
     hartree contribution      =     169.01325271 Ry
     xc contribution           =     -65.96359399 Ry
     ewald contribution        =    -256.50042839 Ry
     one-center paw contrib.   =    -247.49020303 Ry
      -> PAW hartree energy AE =     175.43079412 Ry
      -> PAW hartree energy PS =    -176.38537030 Ry
      -> PAW xc energy AE      =    -104.43838604 Ry
      -> PAW xc energy PS      =      27.77821211 Ry
      -> total E_H with PAW    =     168.05867653 Ry
      -> total E_XC with PAW   =    -142.62376792 Ry

     total magnetization       =     7.81 Bohr mag/cell
     absolute magnetization    =     7.92 Bohr mag/cell

     convergence has been achieved in  15 iterations

     Forces acting on atoms (cartesian axes, Ry/au):

     atom    1 type  1   force =     0.00006575   -0.00003796    0.00002402
     atom    2 type  2   force =     0.00006549   -0.00003781    0.00002406
     atom    3 type  3   force =    -0.00006589    0.00003804   -0.00002391
     atom    4 type  3   force =    -0.00006535    0.00003773   -0.00002417
     The non-local contrib.  to forces
     atom    1 type  1   force =    -0.02289807    0.01322020    0.00633174
     atom    2 type  2   force =    -0.02289873    0.01322059    0.00633190
     atom    3 type  3   force =     0.00134025   -0.00077379    0.00062871
     atom    4 type  3   force =     0.00134078   -0.00077410    0.00062851
     The ionic contribution  to forces
     atom    1 type  1   force =     0.13122367   -0.07576356   -0.07881486
     atom    2 type  2   force =     0.13118214   -0.07573958   -0.07879947
     atom    3 type  3   force =    -0.13121663    0.07575949    0.07881381
     atom    4 type  3   force =    -0.13118918    0.07574364    0.07880052
     The local contribution  to forces
     atom    1 type  1   force =    -0.11126034    0.06423742    0.07334270
     atom    2 type  2   force =    -0.11121860    0.06421332    0.07332731
     atom    3 type  3   force =     0.12959081   -0.07482054   -0.07929944
     atom    4 type  3   force =     0.12956366   -0.07480486   -0.07928631
     The core correction contribution to forces
     atom    1 type  1   force =     0.00288287   -0.00166442   -0.00077117
     atom    2 type  2   force =     0.00288280   -0.00166438   -0.00077117
     atom    3 type  3   force =     0.00010317   -0.00005957   -0.00010301
     atom    4 type  3   force =     0.00010314   -0.00005955   -0.00010300
     The Hubbard contrib.    to forces
     atom    1 type  1   force =     0.00000000    0.00000000    0.00000000
     atom    2 type  2   force =     0.00000000    0.00000000    0.00000000
     atom    3 type  3   force =     0.00000000    0.00000000    0.00000000
     atom    4 type  3   force =     0.00000000    0.00000000    0.00000000
     The SCF correction term to forces
     atom    1 type  1   force =     0.00000087   -0.00000050   -0.00000043
     atom    2 type  2   force =     0.00000115   -0.00000066   -0.00000054
     atom    3 type  3   force =     0.00000003   -0.00000001   -0.00000001
     atom    4 type  3   force =    -0.00000025    0.00000015    0.00000009

     Total force =     0.000159     Total SCF correction =     0.000002
     Energy error            =      2.1E-07 Ry
     Gradient error          =      6.6E-05 Ry/Bohr

     bfgs converged in   8 scf cycles and   7 bfgs steps
     (criteria: energy <  1.0E-05 Ry, force <  1.0E-04 Ry/Bohr)

     End of BFGS Geometry Optimization

     Final energy             =    -705.4751279699 Ry

     File ./temp/mns.bfgs deleted, as requested
Begin final coordinates

ATOMIC_POSITIONS (crystal)
Mn1              0.3724980992        0.7512898042        0.7524241930
Mn2              0.8724980892        0.7512897702        0.7524242810
S                0.0025021566       -0.0012899563       -0.0024244002
S                0.5025016551       -0.0012896180       -0.0024240738
End final coordinates

     Writing all to output data dir ./temp/mns.save/ :
     XML data file, charge density, pseudopotentials, collected wavefunctions

     General routines

     Parallel routines

     PAW routines

   This run was terminated on:  23:23:41  17Jan2025

   JOB DONE.