     Program PWSCF v.7.3.1 starts on 31Jan2025 at 19:42: 0

     Reading input from vc_relax.in

     Current dimensions of program PWSCF are:
     Max number of different atomic species (ntypx) = 10
     Max number of k-points (npk) =  40000
     Max angular momentum in pseudopotentials (lmaxx) =  4
     file Mn.pbe-spn-kjpaw_psl.0.3.1.UPF: wavefunction(s)  3P 3D renormalized
     file Mn.pbe-spn-kjpaw_psl.0.3.1.UPF: wavefunction(s)  3P 3D renormalized
     file Mn.pbe-spn-kjpaw_psl.0.3.1.UPF: wavefunction(s)  3P 3D renormalized
     file Mn.pbe-spn-kjpaw_psl.0.3.1.UPF: wavefunction(s)  3P 3D renormalized
     file S.pbe-n-kjpaw_psl.1.0.0.UPF: wavefunction(s)  3S 3P renormalized

     R & G space division:  proc/nbgrp/npool/nimage =       6
     Subspace diagonalization in iterative solution of the eigenvalue problem:
     a serial algorithm will be used

     Using Slab Decomposition

     bravais-lattice index     =            0
     lattice parameter (alat)  =      14.7866  a.u.
     unit-cell volume          =    1143.0296 (a.u.)^3
     number of atoms/cell      =            8
     number of atomic types    =            5
     number of electrons       =        84.00
     number of Kohn-Sham states=           50
     kinetic-energy cutoff     =      30.0000  Ry
     charge density cutoff     =     150.0000  Ry
     scf convergence threshold =      1.0E-10
     mixing beta               =       0.7000
     number of iterations used =            8  plain     mixing
     energy convergence thresh.=      1.0E-05
     force convergence thresh. =      1.0E-04
     press convergence thresh. =      5.0E-01
     Exchange-correlation= SLA  PW   PBX  PBC
                           (   1   4   3   4   0   0   0)
     nstep                     =           50

     celldm(1)=  14.786571  celldm(2)=   0.000000  celldm(3)=   0.000000
     celldm(4)=   0.000000  celldm(5)=   0.000000  celldm(6)=   0.000000

     crystal axes: (cart. coord. in units of alat)
               a(1) = (   1.000000   0.000000   0.000000 )
               a(2) = (   0.500000   0.866025   0.000000 )
               a(3) = (   0.250000   0.144338   0.408248 )

     reciprocal axes: (cart. coord. in units 2 pi/alat)
               b(1) = (  1.000000 -0.577350 -0.408248 )
               b(2) = (  0.000000  1.154700 -0.408248 )
               b(3) = (  0.000000  0.000000  2.449490 )

     PseudoPot. # 1 for Mn read from file:
     ./../../../pseudos/Mn.pbe-spn-kjpaw_psl.0.3.1.UPF
     MD5 check sum: ba19e6d7ccbc12830efad05ba8577d9c
     Pseudo is Projector augmented-wave + core cor, Zval = 15.0
     Generated using &quot;atomic&quot; code by A. Dal Corso  v.6.2.2
     Shape of augmentation charge: PSQ
     Using radial grid of 1187 points,  6 beta functions with:
                l(1) =   0
                l(2) =   0
                l(3) =   1
                l(4) =   1
                l(5) =   2
                l(6) =   2
     Q(r) pseudized with 0 coefficients

[...]

     PseudoPot. # 5 for S  read from file:
     ./../../../pseudos/S.pbe-n-kjpaw_psl.1.0.0.UPF
     MD5 check sum: fb45dfebcf3e72a4e1bd4a866ec2e262
     Pseudo is Projector augmented-wave + core cor, Zval =  6.0
     Generated using &quot;atomic&quot; code by A. Dal Corso  v.6.3
     Shape of augmentation charge: PSQ
     Using radial grid of 1151 points,  6 beta functions with:
                l(1) =   0
                l(2) =   0
                l(3) =   1
                l(4) =   1
                l(5) =   2
                l(6) =   2
     Q(r) pseudized with 0 coefficients

     atomic species   valence    mass     pseudopotential
     Mn1              15.00    54.93800     Mn( 1.00)
     Mn2              15.00    54.93800     Mn( 1.00)
     Mn3              15.00    54.93800     Mn( 1.00)
     Mn4              15.00    54.93800     Mn( 1.00)
     S                 6.00    32.06500     S ( 1.00)

     No symmetry found

                                    s                        frac. trans.

      isym =  1     identity

 cryst.   s( 1) = (     1          0          0      )
                  (     0          1          0      )
                  (     0          0          1      )

 cart.    s( 1) = (  1.0000000  0.0000000  0.0000000 )
                  (  0.0000000  1.0000000  0.0000000 )
                  (  0.0000000  0.0000000  1.0000000 )

   Cartesian axes

     site n.     atom                  positions (alat units)
         1        Mn1    tau(   1) = (   0.7496458   0.4328080   0.3071081  )
         2        Mn2    tau(   2) = (   0.9996457   0.8658209   0.3071080  )
         3        Mn3    tau(   3) = (   1.2496455   0.4328080   0.3071082  )
         4        Mn4    tau(   4) = (   1.4996455   0.8658211   0.3071080  )
         5        S      tau(   5) = (   0.2503542   0.1445421   0.4073265  )
         6        S      tau(   6) = (   0.5003543   0.5775549   0.4073264  )
         7        S      tau(   7) = (   0.7503543   0.1445421   0.4073265  )
         8        S      tau(   8) = (   1.0003542   0.5775549   0.4073265  )

   Crystallographic axes

     site n.     atom                  positions (cryst. coord.)
         1        Mn1    tau(   1) = (  0.3743877  0.3743872  0.7522580  )
         2        Mn2    tau(   2) = (  0.3743875  0.8743876  0.7522579  )
         3        Mn3    tau(   3) = (  0.8743873  0.3743873  0.7522582  )
         4        Mn4    tau(   4) = (  0.8743873  0.8743877  0.7522578  )
         5        S      tau(   5) = (  0.0006125  0.0006125  0.9977421  )
         6        S      tau(   6) = (  0.0006126  0.5006126  0.9977419  )
         7        S      tau(   7) = (  0.5006126  0.0006125  0.9977419  )
         8        S      tau(   8) = (  0.5006125  0.5006126  0.9977421  )

     number of k points=    23  Gaussian smearing, width (Ry)=  0.0100
                       cart. coord. in units 2pi/alat
        k(    1) = (   0.0000000   0.0000000   0.0000000), wk =   0.0444444
        k(    2) = (   0.0000000   0.0000000   0.4898979), wk =   0.0888889
        k(    3) = (   0.0000000   0.0000000   0.9797958), wk =   0.0888889
        k(    4) = (   0.0000000   0.3849002  -0.1360827), wk =   0.0888889
        k(    5) = (   0.0000000   0.3849002   0.3538152), wk =   0.0888889
        k(    6) = (   0.0000000   0.3849002   0.8437131), wk =   0.0888889
        k(    7) = (   0.0000000   0.3849002  -1.1158786), wk =   0.0888889
        k(    8) = (   0.0000000   0.3849002  -0.6259807), wk =   0.0888889
        k(    9) = (   0.3333333   0.1924501  -0.2721655), wk =   0.0888889
        k(   10) = (   0.3333333   0.1924501   0.2177324), wk =   0.0888889
        k(   11) = (   0.3333333   0.1924501   0.7076304), wk =   0.0888889
        k(   12) = (   0.3333333   0.1924501  -1.2519613), wk =   0.0888889
        k(   13) = (   0.3333333   0.1924501  -0.7620634), wk =   0.0888889
        k(   14) = (   0.3333333  -0.5773502   0.0000000), wk =   0.0888889
        k(   15) = (   0.3333333  -0.5773502   0.4898979), wk =   0.0888889
        k(   16) = (   0.3333333  -0.5773502   0.9797959), wk =   0.0888889
        k(   17) = (  -0.3333333   0.1924501   0.1360827), wk =   0.0888889
        k(   18) = (  -0.3333333   0.1924501  -0.3538152), wk =   0.0888889
        k(   19) = (  -0.3333333   0.1924501  -0.8437131), wk =   0.0888889
        k(   20) = (  -0.3333333   0.1924501   1.1158786), wk =   0.0888889
        k(   21) = (  -0.3333333   0.1924501   0.6259807), wk =   0.0888889
        k(   22) = (   0.3333333  -0.5773502  -0.4898979), wk =   0.0888889
        k(   23) = (   0.3333333  -0.5773502  -0.9797958), wk =   0.0888889

                       cryst. coord.
        k(    1) = (   0.0000000   0.0000000   0.0000000), wk =   0.0444444
        k(    2) = (   0.0000000   0.0000000   0.2000000), wk =   0.0888889
        k(    3) = (   0.0000000   0.0000000   0.4000000), wk =   0.0888889
        k(    4) = (   0.0000000   0.3333333   0.0000000), wk =   0.0888889
        k(    5) = (   0.0000000   0.3333333   0.2000000), wk =   0.0888889
        k(    6) = (   0.0000000   0.3333333   0.4000000), wk =   0.0888889
        k(    7) = (   0.0000000   0.3333333  -0.4000000), wk =   0.0888889
        k(    8) = (   0.0000000   0.3333333  -0.2000000), wk =   0.0888889
        k(    9) = (   0.3333333   0.3333333   0.0000000), wk =   0.0888889
        k(   10) = (   0.3333333   0.3333333   0.2000000), wk =   0.0888889
        k(   11) = (   0.3333333   0.3333333   0.4000000), wk =   0.0888889
        k(   12) = (   0.3333333   0.3333333  -0.4000000), wk =   0.0888889
        k(   13) = (   0.3333333   0.3333333  -0.2000000), wk =   0.0888889
        k(   14) = (   0.3333333  -0.3333333   0.0000000), wk =   0.0888889
        k(   15) = (   0.3333333  -0.3333333   0.2000000), wk =   0.0888889
        k(   16) = (   0.3333333  -0.3333333   0.4000000), wk =   0.0888889
        k(   17) = (  -0.3333333   0.0000000  -0.0000000), wk =   0.0888889
        k(   18) = (  -0.3333333   0.0000000  -0.2000000), wk =   0.0888889
        k(   19) = (  -0.3333333   0.0000000  -0.4000000), wk =   0.0888889
        k(   20) = (  -0.3333333   0.0000000   0.4000000), wk =   0.0888889
        k(   21) = (  -0.3333333   0.0000000   0.2000000), wk =   0.0888889
        k(   22) = (   0.3333333  -0.3333333  -0.2000000), wk =   0.0888889
        k(   23) = (   0.3333333  -0.3333333  -0.4000000), wk =   0.0888889

     Check: negative core charge=   -0.000237

     Initial potential from superposition of free atoms

     starting charge      83.9979, renormalised to      84.0000
     Starting wfcs are   56 randomized atomic wfcs
     Checking if some PAW data can be deallocated...

     Self-consistent Calculation

     iteration #  1     ecut=    30.00 Ry     beta= 0.70
     Davidson diagonalization with overlap

     ethr =  1.00E-02,  avg # of iterations =  2.0

     Threshold (ethr) on eigenvalues was too large:
     Diagonalizing with lowered threshold

     Davidson diagonalization with overlap

[...]

     total energy              =   -1410.59228489 Ry
     estimated scf accuracy    <       0.26404894 Ry

[...]

     End of self-consistent calculation

          k = 0.0000 0.0000 0.0000 (  3203 PWs)   bands (ev):

   -72.2483 -72.2478 -72.2478 -72.2476 -40.9923 -40.9919 -40.9919 -40.9903
   -40.9901 -40.9901 -40.9894 -40.9881 -40.9875 -40.9854 -40.9854 -40.9846
    -6.5670  -5.9159  -5.9159  -5.7083   1.9923   1.9923   2.0046   3.4877
     3.5015   3.5340   3.6704   3.6704   3.6798   3.6798   3.7234   3.7669
     6.2713   6.6711   6.6734   6.8404   6.8404   6.8518   6.8518   6.9168
     6.9168   6.9882   7.0707   7.3759   7.4075   8.2604   8.2604   8.2798
     8.2798   9.2295

     occupation numbers
     1.0000   1.0000   1.0000   1.0000   1.0000   1.0000   1.0000   1.0000
     1.0000   1.0000   1.0000   1.0000   1.0000   1.0000   1.0000   1.0000
     1.0000   1.0000   1.0000   1.0000   1.0000   1.0000   1.0000   1.0000
     1.0000   1.0000   1.0000   1.0000   1.0000   1.0000   1.0000   1.0000
     1.0000   1.0000   1.0000   0.9996   0.9996   0.9994   0.9994   0.9948
     0.9948   0.9659   0.8329   0.0137   0.0056   0.0000   0.0000   0.0000
[...]
                l(1) =   0
                l(2) =   0
                l(3) =   1
                l(4) =   1
                l(5) =   2
                l(6) =   2
     Q(r) pseudized with 0 coefficients

     atomic species   valence    mass     pseudopotential
     Mn1              15.00    54.93800     Mn( 1.00)
     Mn2              15.00    54.93800     Mn( 1.00)
     Mn3              15.00    54.93800     Mn( 1.00)
     Mn4              15.00    54.93800     Mn( 1.00)
     S                 6.00    32.06500     S ( 1.00)

     No symmetry found

                                    s                        frac. trans.

      isym =  1     identity

 cryst.   s( 1) = (     1          0          0      )
                  (     0          1          0      )
                  (     0          0          1      )

 cart.    s( 1) = (  1.0000000  0.0000000  0.0000000 )
                  (  0.0000000  1.0000000  0.0000000 )
                  (  0.0000000  0.0000000  1.0000000 )

   Cartesian axes

     site n.     atom                  positions (alat units)
         1        Mn1    tau(   1) = (   0.6677324   0.3855155   0.2654364  )
         2        Mn2    tau(   2) = (   0.8911348   0.7728954   0.2622616  )
         3        Mn3    tau(   3) = (   1.1149143   0.3852977   0.2622616  )
         4        Mn4    tau(   4) = (   1.3383165   0.7726775   0.2590870  )
         5        S      tau(   5) = (   0.2218116   0.1280629   0.3563324  )
         6        S      tau(   6) = (   0.4452138   0.5154430   0.3531577  )
         7        S      tau(   7) = (   0.6689936   0.1278450   0.3531577  )
         8        S      tau(   8) = (   0.8923958   0.5152251   0.3499830  )

   Crystallographic axes

     site n.     atom                  positions (cryst. coord.)
         1        Mn1    tau(   1) = (  0.3735665  0.3735664  0.7546562  )
         2        Mn2    tau(   2) = (  0.3735667  0.8735663  0.7546560  )
         3        Mn3    tau(   3) = (  0.8735662  0.3735666  0.7546562  )
         4        Mn4    tau(   4) = (  0.8735663  0.8735663  0.7546565  )
         5        S      tau(   5) = (  0.0014336  0.0014335  0.9953437  )
         6        S      tau(   6) = (  0.0014336  0.5014336  0.9953437  )
         7        S      tau(   7) = (  0.5014336  0.0014335  0.9953438  )
         8        S      tau(   8) = (  0.5014335  0.5014336  0.9953438  )

     number of k points=    23  Gaussian smearing, width (Ry)=  0.0100
                       cart. coord. in units 2pi/alat
        k(    1) = (   0.0000000   0.0000000   0.0000000), wk =   0.0444444
        k(    2) = (   0.0039440   0.0022771   0.5553868), wk =   0.0888889
        k(    3) = (   0.0078880   0.0045541   1.1107736), wk =   0.0888889
        k(    4) = (  -0.0008731   0.4294947  -0.1524724), wk =   0.0888889
        k(    5) = (   0.0030709   0.4317718   0.4029144), wk =   0.0888889
        k(    6) = (   0.0070149   0.4340489   0.9583013), wk =   0.0888889
        k(    7) = (  -0.0087611   0.4249406  -1.2632460), wk =   0.0888889
        k(    8) = (  -0.0048171   0.4272176  -0.7078592), wk =   0.0888889
        k(    9) = (   0.3706437   0.2139912  -0.3049448), wk =   0.0888889
        k(   10) = (   0.3745877   0.2162683   0.2504420), wk =   0.0888889
        k(   11) = (   0.3785317   0.2185454   0.8058289), wk =   0.0888889
        k(   12) = (   0.3627557   0.2094371  -1.4157184), wk =   0.0888889
        k(   13) = (   0.3666997   0.2117142  -0.8603316), wk =   0.0888889
        k(   14) = (   0.3723899  -0.6449982   0.0000000), wk =   0.0888889
        k(   15) = (   0.3763339  -0.6427211   0.5553868), wk =   0.0888889
        k(   16) = (   0.3802779  -0.6404441   1.1107736), wk =   0.0888889
        k(   17) = (  -0.3715168   0.2155035   0.1524724), wk =   0.0888889
        k(   18) = (  -0.3754608   0.2132264  -0.4029144), wk =   0.0888889
        k(   19) = (  -0.3794048   0.2109493  -0.9583013), wk =   0.0888889
        k(   20) = (  -0.3636288   0.2200576   1.2632460), wk =   0.0888889
        k(   21) = (  -0.3675728   0.2177805   0.7078592), wk =   0.0888889
        k(   22) = (   0.3684459  -0.6472753  -0.5553868), wk =   0.0888889
        k(   23) = (   0.3645019  -0.6495523  -1.1107736), wk =   0.0888889

                       cryst. coord.
        k(    1) = (   0.0000000   0.0000000   0.0000000), wk =   0.0444444
        k(    2) = (   0.0000000  -0.0000000   0.2000000), wk =   0.0888889
        k(    3) = (   0.0000000  -0.0000000   0.4000000), wk =   0.0888889
        k(    4) = (   0.0000000   0.3333333  -0.0000000), wk =   0.0888889
        k(    5) = (   0.0000000   0.3333333   0.2000000), wk =   0.0888889
        k(    6) = (  -0.0000000   0.3333333   0.4000000), wk =   0.0888889
        k(    7) = (   0.0000000   0.3333333  -0.4000000), wk =   0.0888889
        k(    8) = (   0.0000000   0.3333333  -0.2000000), wk =   0.0888889
        k(    9) = (   0.3333333   0.3333333  -0.0000000), wk =   0.0888889
        k(   10) = (   0.3333333   0.3333333   0.2000000), wk =   0.0888889
        k(   11) = (   0.3333333   0.3333333   0.4000000), wk =   0.0888889
        k(   12) = (   0.3333333   0.3333333  -0.4000000), wk =   0.0888889
        k(   13) = (   0.3333333   0.3333333  -0.2000000), wk =   0.0888889
        k(   14) = (   0.3333333  -0.3333333   0.0000000), wk =   0.0888889
        k(   15) = (   0.3333333  -0.3333333   0.2000000), wk =   0.0888889
        k(   16) = (   0.3333333  -0.3333333   0.4000000), wk =   0.0888889
        k(   17) = (  -0.3333333   0.0000000  -0.0000000), wk =   0.0888889
        k(   18) = (  -0.3333333   0.0000000  -0.2000000), wk =   0.0888889
        k(   19) = (  -0.3333333   0.0000000  -0.4000000), wk =   0.0888889
        k(   20) = (  -0.3333333   0.0000000   0.4000000), wk =   0.0888889
        k(   21) = (  -0.3333333   0.0000000   0.2000000), wk =   0.0888889
        k(   22) = (   0.3333333  -0.3333333  -0.2000000), wk =   0.0888889
        k(   23) = (   0.3333333  -0.3333333  -0.4000000), wk =   0.0888889

     Check: negative core charge=   -0.000271

     Initial potential from superposition of free atoms

     starting charge      83.9979, renormalised to      84.0000
     Starting wfcs are   56 randomized atomic wfcs
     Checking if some PAW data can be deallocated...

     Self-consistent Calculation

[...]

     c_bands:  1 eigenvalues not converged
     c_bands:  1 eigenvalues not converged
     c_bands:  1 eigenvalues not converged
     c_bands:  1 eigenvalues not converged
     c_bands:  1 eigenvalues not converged
     ethr =  1.00E-06,  avg # of iterations = 17.1

[...]

     total energy              =   -1410.93364673 Ry
     estimated scf accuracy    <          1.7E-12 Ry

     iteration # 24     ecut=    30.00 Ry     beta= 0.70
     Davidson diagonalization with overlap

     ethr =  1.00E-13,  avg # of iterations =  1.0

     End of self-consistent calculation

[...]

          k =-0.3676 0.2178 0.7079 (  2234 PWs)   bands (ev):

[...]

          k = 0.3645-0.6496-1.1108 (  2226 PWs)   bands (ev):

   -67.4759 -67.4754 -67.4754 -67.4753 -36.2759 -36.2756 -36.2742 -36.2720
   -36.2696 -36.2673 -36.2654 -36.2639 -36.2627 -36.2609 -36.2585 -36.2559
    -2.3880  -1.9547  -1.8985  -1.8701   5.7474   5.7784   5.8114   5.9373
     6.5070   6.6491   6.7731   7.1701   7.4439   7.5469   7.5720   7.6232
    10.3527  10.5265  10.5306  10.5544  11.0596  11.0658  11.1140  11.5020
    11.7797  11.8024  11.9255  12.5140  12.6619  12.6711  12.6809  13.3518
    13.4231  13.5065

     occupation numbers
     1.0000   1.0000   1.0000   1.0000   1.0000   1.0000   1.0000   1.0000
     1.0000   1.0000   1.0000   1.0000   1.0000   1.0000   1.0000   1.0000
     1.0000   1.0000   1.0000   1.0000   1.0000   1.0000   1.0000   1.0000
     1.0000   1.0000   1.0000   1.0000   1.0000   1.0000   1.0000   1.0000
     1.0000   1.0000   1.0000   1.0000   1.0000   1.0000   1.0000   0.9999
     0.8070   0.7362   0.2585   0.0000   0.0000   0.0000   0.0000   0.0000
     0.0000   0.0000

     the Fermi energy is    11.8631 ev

!    total energy              =   -1410.93364673 Ry
     total all-electron energy =    -12462.367261 Ry
     estimated scf accuracy    <          2.4E-13 Ry
     smearing contrib. (-TS)   =      -0.00670106 Ry
     internal energy E=F+TS    =   -1410.92694566 Ry

     The total energy is F=E-TS. E is the sum of the following terms:
     one-electron contribution =    -509.50122299 Ry
     hartree contribution      =     301.87551229 Ry
     xc contribution           =    -132.21298060 Ry
     ewald contribution        =    -576.19763042 Ry
     one-center paw contrib.   =    -494.89062394 Ry
      -> PAW hartree energy AE =     368.69938034 Ry
      -> PAW hartree energy PS =    -370.52654494 Ry
      -> PAW xc energy AE      =    -209.38603533 Ry
      -> PAW xc energy PS      =      56.03268379 Ry
      -> total E_H with PAW    =     300.04834769 Ry
      -> total E_XC with PAW   =    -285.56633215 Ry

     convergence has been achieved in  24 iterations

     Forces acting on atoms (cartesian axes, Ry/au):

     atom    1 type  1   force =    -0.00088460   -0.00051062    0.00066592
     atom    2 type  2   force =    -0.00088497   -0.00051003    0.00066593
     atom    3 type  3   force =    -0.00088403   -0.00051122    0.00066576
     atom    4 type  4   force =    -0.00088384   -0.00051043    0.00066545
     atom    5 type  5   force =     0.00088451    0.00051076   -0.00066595
     atom    6 type  5   force =     0.00088446    0.00051023   -0.00066569
     atom    7 type  5   force =     0.00088425    0.00051094   -0.00066583
     atom    8 type  5   force =     0.00088421    0.00051037   -0.00066558
     The non-local contrib.  to forces
     atom    1 type  1   force =    -0.00319908   -0.00184753    0.00967357
     atom    2 type  2   force =    -0.00319779   -0.00184816    0.00967297
     atom    3 type  3   force =    -0.00320000   -0.00184554    0.00967342
     atom    4 type  4   force =    -0.00320120   -0.00184771    0.00967488
     atom    5 type  5   force =    -0.00347366   -0.00200544    0.00573987
     atom    6 type  5   force =    -0.00347370   -0.00200563    0.00574003
     atom    7 type  5   force =    -0.00347364   -0.00200540    0.00573991
     atom    8 type  5   force =    -0.00347368   -0.00200566    0.00574004
     The ionic contribution  to forces
     atom    1 type  1   force =    -0.08538631   -0.04928081    0.15219751
     atom    2 type  2   force =    -0.08542017   -0.04923737    0.15220343
     atom    3 type  3   force =    -0.08533572   -0.04934790    0.15218958
     atom    4 type  4   force =    -0.08530208   -0.04926726    0.15214123
     atom    5 type  5   force =     0.08537786    0.04928716   -0.15219537
     atom    6 type  5   force =     0.08537690    0.04925908   -0.15218457
     atom    7 type  5   force =     0.08534600    0.04930713   -0.15218209
     atom    8 type  5   force =     0.08534351    0.04927997   -0.15216972
     The local contribution  to forces
     atom    1 type  1   force =     0.08826633    0.05094405   -0.16174619
     atom    2 type  2   force =     0.08829853    0.05090152   -0.16175135
     atom    3 type  3   force =     0.08821658    0.05100891   -0.16173796
     atom    4 type  4   force =     0.08818437    0.05093095   -0.16169131
     atom    5 type  5   force =    -0.08102338   -0.04677327    0.14599882
     atom    6 type  5   force =    -0.08102226   -0.04674499    0.14598783
     atom    7 type  5   force =    -0.08099156   -0.04679303    0.14598545
     atom    8 type  5   force =    -0.08098925   -0.04676586    0.14597319
     The core correction contribution to forces
     atom    1 type  1   force =    -0.00051777   -0.00029891    0.00067376
     atom    2 type  2   force =    -0.00051789   -0.00029885    0.00067377
     atom    3 type  3   force =    -0.00051776   -0.00029908    0.00067377
     atom    4 type  4   force =    -0.00051769   -0.00029892    0.00067369
     atom    5 type  5   force =     0.00005103    0.00002946   -0.00007615
     atom    6 type  5   force =     0.00005103    0.00002948   -0.00007616
     atom    7 type  5   force =     0.00005104    0.00002945   -0.00007616
     atom    8 type  5   force =     0.00005104    0.00002947   -0.00007617
     The Hubbard contrib.    to forces
     atom    1 type  1   force =     0.00000000    0.00000000    0.00000000
     atom    2 type  2   force =     0.00000000    0.00000000    0.00000000
     atom    3 type  3   force =     0.00000000    0.00000000    0.00000000
     atom    4 type  4   force =     0.00000000    0.00000000    0.00000000
     atom    5 type  5   force =     0.00000000    0.00000000    0.00000000
     atom    6 type  5   force =     0.00000000    0.00000000    0.00000000
     atom    7 type  5   force =     0.00000000    0.00000000    0.00000000
     atom    8 type  5   force =     0.00000000    0.00000000    0.00000000
     The SCF correction term to forces
     atom    1 type  1   force =    -0.00000031   -0.00000001    0.00000023
     atom    2 type  2   force =    -0.00000019    0.00000024    0.00000005
     atom    3 type  3   force =     0.00000032   -0.00000021   -0.00000010
     atom    4 type  4   force =     0.00000023   -0.00000008   -0.00000008
     atom    5 type  5   force =     0.00000012    0.00000024   -0.00000016
     atom    6 type  5   force =    -0.00000006   -0.00000030    0.00000014
     atom    7 type  5   force =    -0.00000013    0.00000020    0.00000001
     atom    8 type  5   force =     0.00000004   -0.00000015    0.00000003

     Total force =     0.003448     Total SCF correction =     0.000001

     Computing stress (Cartesian axis) and pressure

          total   stress  (Ry/bohr**3)                   (kbar)     P=     -497.31
  -0.00335560   0.00000572  -0.00002584         -493.63        0.84       -3.80
   0.00000572  -0.00336220  -0.00001492            0.84     -494.60       -2.19
  -0.00002584  -0.00001492  -0.00342416           -3.80       -2.19     -503.71

     kinetic stress (kbar)  22492.72     -0.88    -29.56
                               -0.88  22493.74    -17.06
                              -29.56    -17.06  22440.32

     local   stress (kbar)   2279.63    -76.10    259.10
                              -76.10   2367.50    149.59
                              259.10    149.59   2682.19

     nonloc. stress (kbar)  -1573.03     -1.02     26.69
                               -1.02  -1571.86     15.41
                               26.69     15.41  -1526.65

     hartree stress (kbar)  18379.83     46.76    -64.98
                               46.76  18325.83    -37.52
                              -64.98    -37.52  18326.31

     exc-cor stress (kbar)  -3354.77     -0.22     -1.00
                               -0.22  -3354.52     -0.58
                               -1.00     -0.58  -3356.92

     corecor stress (kbar)  -3833.73      0.12      1.41
                                0.12  -3833.87      0.82
                                1.41      0.82  -3833.69

     ewald   stress (kbar) -34884.26     32.18   -195.46
                               32.18 -34921.42   -112.85
                             -195.46   -112.85 -35235.28

     hubbard stress (kbar)      0.00      0.00      0.00
                                0.00      0.00      0.00
                                0.00      0.00      0.00

     DFT-D   stress (kbar)      0.00      0.00      0.00
                                0.00      0.00      0.00
                                0.00      0.00      0.00

     XDM     stress (kbar)      0.00      0.00      0.00
                                0.00      0.00      0.00
                                0.00      0.00      0.00

     dft-nl  stress (kbar)      0.00      0.00      0.00
                                0.00      0.00      0.00
                                0.00      0.00      0.00

     TS-vdW  stress (kbar)      0.00      0.00      0.00
                                0.00      0.00      0.00
                                0.00      0.00      0.00

     MDB     stress (kbar)      0.00      0.00      0.00
                                0.00      0.00      0.00
                                0.00      0.00      0.00

     3D-RISM stress (kbar)      0.00      0.00      0.00
                                0.00      0.00      0.00
                                0.00      0.00      0.00

     Writing all to output data dir ./temp/mns.save/ :
     XML data file, charge density, pseudopotentials, collected wavefunctions

     General routines

     Parallel routines

     PAW routines

   This run was terminated on:  20: 8:57  31Jan2025

   JOB DONE.