     Program PWSCF v.7.3.1 starts on 20Jan2025 at  6:52:12

     Reading input from relax.in

     Current dimensions of program PWSCF are:
     Max number of different atomic species (ntypx) = 10
     Max number of k-points (npk) =  40000
     Max angular momentum in pseudopotentials (lmaxx) =  4
     file Mn.pbe-spn-kjpaw_psl.0.3.1.UPF: wavefunction(s)  3P 3D renormalized
     file Mn.pbe-spn-kjpaw_psl.0.3.1.UPF: wavefunction(s)  3P 3D renormalized
     file Mn.pbe-spn-kjpaw_psl.0.3.1.UPF: wavefunction(s)  3P 3D renormalized
     file Mn.pbe-spn-kjpaw_psl.0.3.1.UPF: wavefunction(s)  3P 3D renormalized
     file S.pbe-n-kjpaw_psl.1.0.0.UPF: wavefunction(s)  3S 3P renormalized

     R & G space division:  proc/nbgrp/npool/nimage =       3
     Subspace diagonalization in iterative solution of the eigenvalue problem:
     a serial algorithm will be used

     Using Slab Decomposition

     bravais-lattice index     =            0
     lattice parameter (alat)  =      14.7866  a.u.
     unit-cell volume          =    1143.0296 (a.u.)^3
     number of atoms/cell      =            8
     number of atomic types    =            5
     number of electrons       =        84.00
     number of Kohn-Sham states=           50
     kinetic-energy cutoff     =      30.0000  Ry
     charge density cutoff     =     150.0000  Ry
     scf convergence threshold =      1.0E-10
     mixing beta               =       0.7000
     number of iterations used =            8  plain     mixing
     energy convergence thresh.=      1.0E-05
     force convergence thresh. =      1.0E-04
     Exchange-correlation= SLA  PW   PBX  PBC
                           (   1   4   3   4   0   0   0)
     nstep                     =           50

     celldm(1)=  14.786571  celldm(2)=   0.000000  celldm(3)=   0.000000
     celldm(4)=   0.000000  celldm(5)=   0.000000  celldm(6)=   0.000000

     crystal axes: (cart. coord. in units of alat)
               a(1) = (   1.000000   0.000000   0.000000 )
               a(2) = (   0.500000   0.866025   0.000000 )
               a(3) = (   0.250000   0.144338   0.408248 )

     reciprocal axes: (cart. coord. in units 2 pi/alat)
               b(1) = (  1.000000 -0.577350 -0.408248 )
               b(2) = (  0.000000  1.154700 -0.408248 )
               b(3) = (  0.000000  0.000000  2.449490 )

     PseudoPot. # 1 for Mn read from file:
     ./../../../pseudos/Mn.pbe-spn-kjpaw_psl.0.3.1.UPF
     MD5 check sum: ba19e6d7ccbc12830efad05ba8577d9c
     Pseudo is Projector augmented-wave + core cor, Zval = 15.0
     Generated using &quot;atomic&quot; code by A. Dal Corso  v.6.2.2
     Shape of augmentation charge: PSQ
     Using radial grid of 1187 points,  6 beta functions with:
                l(1) =   0
                l(2) =   0
                l(3) =   1
                l(4) =   1
                l(5) =   2
                l(6) =   2
     Q(r) pseudized with 0 coefficients

[...]

     PseudoPot. # 4 for Mn read from file:
     ./../../../pseudos/Mn.pbe-spn-kjpaw_psl.0.3.1.UPF
     MD5 check sum: ba19e6d7ccbc12830efad05ba8577d9c
     Pseudo is Projector augmented-wave + core cor, Zval = 15.0
     Generated using &quot;atomic&quot; code by A. Dal Corso  v.6.2.2
     Shape of augmentation charge: PSQ
     Using radial grid of 1187 points,  6 beta functions with:
                l(1) =   0
                l(2) =   0
                l(3) =   1
                l(4) =   1
                l(5) =   2
                l(6) =   2
     Q(r) pseudized with 0 coefficients

     PseudoPot. # 5 for S  read from file:
     ./../../../pseudos/S.pbe-n-kjpaw_psl.1.0.0.UPF
     MD5 check sum: fb45dfebcf3e72a4e1bd4a866ec2e262
     Pseudo is Projector augmented-wave + core cor, Zval =  6.0
     Generated using &quot;atomic&quot; code by A. Dal Corso  v.6.3
     Shape of augmentation charge: PSQ
     Using radial grid of 1151 points,  6 beta functions with:
                l(1) =   0
                l(2) =   0
                l(3) =   1
                l(4) =   1
                l(5) =   2
                l(6) =   2
     Q(r) pseudized with 0 coefficients

     atomic species   valence    mass     pseudopotential
     Mn1              15.00    54.93800     Mn( 1.00)
     Mn2              15.00    54.93800     Mn( 1.00)
     Mn3              15.00    54.93800     Mn( 1.00)
     Mn4              15.00    54.93800     Mn( 1.00)
     S                 6.00    32.06500     S ( 1.00)

     Starting magnetic structure
     atomic species   magnetization
     Mn1             0.200
     Mn2             0.200
     Mn3            -0.200
     Mn4            -0.200
     S               0.000

     No symmetry found

                                    s                        frac. trans.

      isym =  1     identity

 cryst.   s( 1) = (     1          0          0      )
                  (     0          1          0      )
                  (     0          0          1      )

 cart.    s( 1) = (  1.0000000  0.0000000  0.0000000 )
                  (  0.0000000  1.0000000  0.0000000 )
                  (  0.0000000  0.0000000  1.0000000 )

   Cartesian axes

     site n.     atom                  positions (alat units)
         1        Mn1    tau(   1) = (   0.7500000   0.4330127   0.3061862  )
         2        Mn2    tau(   2) = (   0.9999999   0.8660254   0.3061862  )
         3        Mn3    tau(   3) = (   1.2500000   0.4330127   0.3061862  )
         4        Mn4    tau(   4) = (   1.4999999   0.8660254   0.3061862  )
         5        S      tau(   5) = (   0.0000000   0.0000000   0.0000000  )
         6        S      tau(   6) = (   0.2500000   0.4330127   0.0000000  )
         7        S      tau(   7) = (   0.5000000   0.0000000   0.0000000  )
         8        S      tau(   8) = (   0.7500000   0.4330127   0.0000000  )

   Crystallographic axes

     site n.     atom                  positions (cryst. coord.)
         1        Mn1    tau(   1) = (  0.3750000  0.3750000  0.7500000  )
         2        Mn2    tau(   2) = (  0.3750000  0.8750000  0.7500000  )
         3        Mn3    tau(   3) = (  0.8750000  0.3750000  0.7500000  )
         4        Mn4    tau(   4) = (  0.8750000  0.8750000  0.7500000  )
         5        S      tau(   5) = (  0.0000000  0.0000000  0.0000000  )
         6        S      tau(   6) = (  0.0000000  0.5000000  0.0000000  )
         7        S      tau(   7) = (  0.5000000  0.0000000  0.0000000  )
         8        S      tau(   8) = (  0.5000000  0.5000000  0.0000000  )

     number of k points=    23  Gaussian smearing, width (Ry)=  0.0100
                       cart. coord. in units 2pi/alat
        k(    1) = (   0.0000000   0.0000000   0.0000000), wk =   0.0222222
        k(    2) = (   0.0000000   0.0000000   0.4898979), wk =   0.0444444
        k(    3) = (   0.0000000   0.0000000   0.9797958), wk =   0.0444444
        k(    4) = (   0.0000000   0.3849002  -0.1360827), wk =   0.0444444
        k(    5) = (   0.0000000   0.3849002   0.3538152), wk =   0.0444444
        k(    6) = (   0.0000000   0.3849002   0.8437131), wk =   0.0444444
        k(    7) = (   0.0000000   0.3849002  -1.1158786), wk =   0.0444444
        k(    8) = (   0.0000000   0.3849002  -0.6259807), wk =   0.0444444
        k(    9) = (   0.3333333   0.1924501  -0.2721655), wk =   0.0444444
        k(   10) = (   0.3333333   0.1924501   0.2177324), wk =   0.0444444
        k(   11) = (   0.3333333   0.1924501   0.7076304), wk =   0.0444444
        k(   12) = (   0.3333333   0.1924501  -1.2519613), wk =   0.0444444
        k(   13) = (   0.3333333   0.1924501  -0.7620634), wk =   0.0444444
        k(   14) = (   0.3333333  -0.5773502   0.0000000), wk =   0.0444444
        k(   15) = (   0.3333333  -0.5773502   0.4898979), wk =   0.0444444
        k(   16) = (   0.3333333  -0.5773502   0.9797959), wk =   0.0444444
        k(   17) = (  -0.3333333   0.1924501   0.1360827), wk =   0.0444444
        k(   18) = (  -0.3333333   0.1924501  -0.3538152), wk =   0.0444444
        k(   19) = (  -0.3333333   0.1924501  -0.8437131), wk =   0.0444444
        k(   20) = (  -0.3333333   0.1924501   1.1158786), wk =   0.0444444
        k(   21) = (  -0.3333333   0.1924501   0.6259807), wk =   0.0444444
        k(   22) = (   0.3333333  -0.5773502  -0.4898979), wk =   0.0444444
        k(   23) = (   0.3333333  -0.5773502  -0.9797958), wk =   0.0444444

                       cryst. coord.
        k(    1) = (   0.0000000   0.0000000   0.0000000), wk =   0.0222222
        k(    2) = (   0.0000000   0.0000000   0.2000000), wk =   0.0444444
        k(    3) = (   0.0000000   0.0000000   0.4000000), wk =   0.0444444
        k(    4) = (   0.0000000   0.3333333   0.0000000), wk =   0.0444444
        k(    5) = (   0.0000000   0.3333333   0.2000000), wk =   0.0444444
        k(    6) = (   0.0000000   0.3333333   0.4000000), wk =   0.0444444
        k(    7) = (   0.0000000   0.3333333  -0.4000000), wk =   0.0444444
        k(    8) = (   0.0000000   0.3333333  -0.2000000), wk =   0.0444444
        k(    9) = (   0.3333333   0.3333333   0.0000000), wk =   0.0444444
        k(   10) = (   0.3333333   0.3333333   0.2000000), wk =   0.0444444
        k(   11) = (   0.3333333   0.3333333   0.4000000), wk =   0.0444444
        k(   12) = (   0.3333333   0.3333333  -0.4000000), wk =   0.0444444
        k(   13) = (   0.3333333   0.3333333  -0.2000000), wk =   0.0444444
        k(   14) = (   0.3333333  -0.3333333   0.0000000), wk =   0.0444444
        k(   15) = (   0.3333333  -0.3333333   0.2000000), wk =   0.0444444
        k(   16) = (   0.3333333  -0.3333333   0.4000000), wk =   0.0444444
        k(   17) = (  -0.3333333   0.0000000  -0.0000000), wk =   0.0444444
        k(   18) = (  -0.3333333   0.0000000  -0.2000000), wk =   0.0444444
        k(   19) = (  -0.3333333   0.0000000  -0.4000000), wk =   0.0444444
        k(   20) = (  -0.3333333   0.0000000   0.4000000), wk =   0.0444444
        k(   21) = (  -0.3333333   0.0000000   0.2000000), wk =   0.0444444
        k(   22) = (   0.3333333  -0.3333333  -0.2000000), wk =   0.0444444
        k(   23) = (   0.3333333  -0.3333333  -0.4000000), wk =   0.0444444

     Check: negative core charge=   -0.000237
     Generating pointlists ...
     new r_m :   0.1263 (alat units)  1.8676 (a.u.) for type    1
     new r_m :   0.1263 (alat units)  1.8676 (a.u.) for type    2
     new r_m :   0.1263 (alat units)  1.8676 (a.u.) for type    3
     new r_m :   0.1263 (alat units)  1.8676 (a.u.) for type    4
     new r_m :   0.1263 (alat units)  1.8676 (a.u.) for type    5

     Initial potential from superposition of free atoms

     starting charge      83.9979, renormalised to      84.0000
     Starting wfcs are   56 randomized atomic wfcs
     Checking if some PAW data can be deallocated...

     Self-consistent Calculation

     iteration #  1     ecut=    30.00 Ry     beta= 0.70
     Davidson diagonalization with overlap

     ethr =  1.00E-02,  avg # of iterations =  2.0

     Threshold (ethr) on eigenvalues was too large:
     Diagonalizing with lowered threshold

     Davidson diagonalization with overlap

[...]

     total energy              =   -1411.02132492 Ry
[...]
     atom    3 type  3   force =    -0.01252600    0.00715264    0.00514664
     atom    4 type  4   force =    -0.01252506    0.00715145    0.00514660
     atom    5 type  5   force =     0.01252659   -0.00715226   -0.00514713
     atom    6 type  5   force =     0.01252629   -0.00715270   -0.00514683
     atom    7 type  5   force =     0.01252660   -0.00715274   -0.00514699
     atom    8 type  5   force =     0.01252694   -0.00715272   -0.00514721
     The non-local contrib.  to forces
     atom    1 type  1   force =    -0.01170905    0.00699498    0.00487043
     atom    2 type  2   force =    -0.01170951    0.00699382    0.00487107
     atom    3 type  3   force =    -0.01170835    0.00699423    0.00487020
     atom    4 type  4   force =    -0.01170795    0.00699335    0.00487027
     atom    5 type  5   force =     0.00927041   -0.00543600   -0.00377999
     atom    6 type  5   force =     0.00927021   -0.00543618   -0.00377982
     atom    7 type  5   force =     0.00927033   -0.00543615   -0.00377987
     atom    8 type  5   force =     0.00927053   -0.00543610   -0.00378002
     The ionic contribution  to forces
     atom    1 type  1   force =    -0.00000135   -0.00000078   -0.00000055
     atom    2 type  2   force =    -0.00000135   -0.00000078   -0.00000055
     atom    3 type  3   force =    -0.00000135   -0.00000078   -0.00000055
     atom    4 type  4   force =    -0.00000135   -0.00000078   -0.00000055
     atom    5 type  5   force =     0.00000135    0.00000078    0.00000055
     atom    6 type  5   force =     0.00000135    0.00000078    0.00000055
     atom    7 type  5   force =     0.00000135    0.00000078    0.00000055
     atom    8 type  5   force =     0.00000135    0.00000078    0.00000055
     The local contribution  to forces
     atom    1 type  1   force =    -0.00407063    0.00204223    0.00160274
     atom    2 type  2   force =    -0.00406932    0.00204590    0.00160066
     atom    3 type  3   force =    -0.00407333    0.00204475    0.00160351
     atom    4 type  4   force =    -0.00407436    0.00204749    0.00160311
     atom    5 type  5   force =     0.00347847   -0.00184628   -0.00145758
     atom    6 type  5   force =     0.00347684   -0.00184951   -0.00145546
     atom    7 type  5   force =     0.00347943   -0.00184909   -0.00145724
     atom    8 type  5   force =     0.00348121   -0.00185012   -0.00145794
     The core correction contribution to forces
     atom    1 type  1   force =     0.00323319   -0.00187238   -0.00131631
     atom    2 type  2   force =     0.00323320   -0.00187238   -0.00131631
     atom    3 type  3   force =     0.00323320   -0.00187238   -0.00131631
     atom    4 type  4   force =     0.00323321   -0.00187240   -0.00131630
     atom    5 type  5   force =    -0.00024647    0.00014499    0.00009858
     atom    6 type  5   force =    -0.00024647    0.00014498    0.00009859
     atom    7 type  5   force =    -0.00024646    0.00014498    0.00009858
     atom    8 type  5   force =    -0.00024646    0.00014497    0.00009858
     The Hubbard contrib.    to forces
     atom    1 type  1   force =     0.00000000    0.00000000    0.00000000
     atom    2 type  2   force =     0.00000000    0.00000000    0.00000000
     atom    3 type  3   force =     0.00000000    0.00000000    0.00000000
     atom    4 type  4   force =     0.00000000    0.00000000    0.00000000
     atom    5 type  5   force =     0.00000000    0.00000000    0.00000000
     atom    6 type  5   force =     0.00000000    0.00000000    0.00000000
     atom    7 type  5   force =     0.00000000    0.00000000    0.00000000
     atom    8 type  5   force =     0.00000000    0.00000000    0.00000000
     The SCF correction term to forces
     atom    1 type  1   force =    -0.00000162    0.00000358   -0.00000031
     atom    2 type  2   force =    -0.00000381   -0.00000087    0.00000257
     atom    3 type  3   force =     0.00000137    0.00000031   -0.00000095
     atom    4 type  4   force =     0.00000293   -0.00000272   -0.00000067
     atom    5 type  5   force =     0.00000037   -0.00000225    0.00000056
     atom    6 type  5   force =     0.00000191    0.00000072   -0.00000143
     atom    7 type  5   force =    -0.00000049    0.00000024    0.00000025
     atom    8 type  5   force =    -0.00000214    0.00000124    0.00000089

     Total force =     0.043319     Total SCF correction =     0.000009

     BFGS Geometry Optimization
     Energy error            =      0.0E+00 Ry
     Gradient error          =      1.3E-02 Ry/Bohr

     number of scf cycles    =   1
     number of bfgs steps    =   0

     energy             new  =   -1411.1129414927 Ry

     new trust radius        =       0.0153172222 bohr
     new conv_thr            =            1.0E-10 Ry

ATOMIC_POSITIONS (crystal)
Mn1              0.3737313768        0.3754165756        0.7508525894
Mn2              0.3737313212        0.8754163851        0.7508528291
Mn3              0.8737315051        0.3754164627        0.7508525739
Mn4              0.8737316167        0.8754163703        0.7508525663
S                0.0012685329       -0.0004164188       -0.0008526553
S                0.0012685219        0.4995835383       -0.0008526048
S                0.5012685487       -0.0004164603       -0.0008526312
S                0.5012685768        0.4995835470       -0.0008526674

     Writing config-only to output data dir ./temp/mns.save/ :
     XML data file
     NEW-OLD atomic charge density approx. for the potential

     Check: negative core charge=   -0.000237
     Generating pointlists ...

[...]

     Total force =     0.033890     Total SCF correction =     0.000011
     Energy error            =      1.7E-03 Ry
     Gradient error          =      9.8E-03 Ry/Bohr

[...]

     energy             old  =   -1411.1129414927 Ry
     energy             new  =   -1411.1146163790 Ry

     CASE: energy            _new < energy            _old

[...]

     Check: negative core charge=   -0.000238
     Generating pointlists ...
     new r_m :   0.1231 (alat units)  1.8202 (a.u.) for type    1
     new r_m :   0.1231 (alat units)  1.8202 (a.u.) for type    2
     new r_m :   0.1231 (alat units)  1.8202 (a.u.) for type    3
     new r_m :   0.1231 (alat units)  1.8202 (a.u.) for type    4
     new r_m :   0.1231 (alat units)  1.8202 (a.u.) for type    5

[...]

     number of scf cycles    =   5
     number of bfgs steps    =   4

     energy             old  =   -1411.1169445239 Ry
     energy             new  =   -1411.1169781064 Ry

     CASE: energy            _new < energy            _old

     new trust radius        =       0.0003666866 bohr
     new conv_thr            =            1.0E-12 Ry

ATOMIC_POSITIONS (crystal)
Mn1              0.3697849642        0.3767097579        0.7535063348
Mn2              0.3697851249        0.8767099362        0.7535059848
Mn3              0.8697854251        0.3767097702        0.7535058582
Mn4              0.8697852497        0.8767097036        0.7535061026
S                0.0052147427       -0.0017097572       -0.0035060375
S                0.0052147887        0.4982902023       -0.0035060455
S                0.5052148481       -0.0017097438       -0.0035061616
S                0.5052148564        0.4982901309       -0.0035060358

     Writing config-only to output data dir ./temp/mns.save/ :
     XML data file
     NEW-OLD atomic charge density approx. for the potential

     Check: negative core charge=   -0.000238
     Generating pointlists ...

     Self-consistent Calculation

[...]

     Threshold (ethr) on eigenvalues was too large:
     Diagonalizing with lowered threshold

     Davidson diagonalization with overlap

[...]

     total energy              =   -1411.11697825 Ry
     estimated scf accuracy    <          4.2E-12 Ry

[...]

     iteration # 10     ecut=    30.00 Ry     beta= 0.70
     Davidson diagonalization with overlap

     ethr =  1.00E-13,  avg # of iterations =  1.0

     Magnetic moment per site  (integrated on atomic sphere of radius R)
     atom   1 (R=0.123)  charge= 12.7989  magn=  3.8658
     atom   2 (R=0.123)  charge= 12.7989  magn=  3.8658
     atom   3 (R=0.123)  charge= 12.7989  magn= -3.8658
     atom   4 (R=0.123)  charge= 12.7989  magn= -3.8658
     atom   5 (R=0.123)  charge=  3.9597  magn= -0.0526
     atom   6 (R=0.123)  charge=  3.9597  magn= -0.0526
     atom   7 (R=0.123)  charge=  3.9597  magn=  0.0526
     atom   8 (R=0.123)  charge=  3.9597  magn=  0.0526

     End of self-consistent calculation

 ------ SPIN UP ------------

[...]

 ------ SPIN DOWN ----------

[...]

          k =-0.3333 0.1925 0.6260 (  3178 PWs)   bands (ev):

[...]

          k = 0.3333-0.5774-0.9798 (  3173 PWs)   bands (ev):

   -74.4032 -74.4032 -70.0025 -70.0025 -43.1505 -43.1502 -43.1499 -43.1491
   -43.0826 -43.0825 -38.8065 -38.8064 -38.7826 -38.7820 -38.7814 -38.7804
    -5.5478  -5.3260  -5.2899  -5.2155   2.4572   2.5811   2.7022   2.8223
     2.9791   3.2118   3.2746   3.4425   3.6117   3.6342   3.9587   4.0984
     4.7506   4.9459   5.1737   5.2377   5.6144   5.7089   5.8917   6.0586
     6.2058   6.5645   8.2175   8.4194   8.7248   8.8143   9.0641   9.1183
     9.2002   9.3978

     occupation numbers
     1.0000   1.0000   1.0000   1.0000   1.0000   1.0000   1.0000   1.0000
     1.0000   1.0000   1.0000   1.0000   1.0000   1.0000   1.0000   1.0000
     1.0000   1.0000   1.0000   1.0000   1.0000   1.0000   1.0000   1.0000
     1.0000   1.0000   1.0000   1.0000   1.0000   1.0000   1.0000   1.0000
     1.0000   1.0000   1.0000   1.0000   1.0000   1.0000   1.0000   1.0000
     1.0000   1.0000   0.0000   0.0000   0.0000   0.0000   0.0000   0.0000
     0.0000   0.0000

     the Fermi energy is     7.7916 ev

!    total energy              =   -1411.11697825 Ry
     total all-electron energy =    -12462.550593 Ry
     estimated scf accuracy    <          6.6E-13 Ry
     smearing contrib. (-TS)   =      -0.00000004 Ry
     internal energy E=F+TS    =   -1411.11697821 Ry

     The total energy is F=E-TS. E is the sum of the following terms:
     one-electron contribution =    -609.32813364 Ry
     hartree contribution      =     338.52460924 Ry
     xc contribution           =    -132.35786147 Ry
     ewald contribution        =    -512.93048722 Ry
     one-center paw contrib.   =    -495.02510512 Ry
      -> PAW hartree energy AE =     525.80749817 Ry
      -> PAW hartree energy PS =    -528.69243303 Ry
      -> PAW xc energy AE      =    -313.53636665 Ry
      -> PAW xc energy PS      =      83.55843662 Ry
      -> total E_H with PAW    =     335.63967438 Ry
      -> total E_XC with PAW   =    -362.33579149 Ry

     total magnetization       =     0.00 Bohr mag/cell
     absolute magnetization    =    17.94 Bohr mag/cell

     convergence has been achieved in  10 iterations

     Forces acting on atoms (cartesian axes, Ry/au):

     atom    1 type  1   force =    -0.00000375   -0.00000691    0.00000356
     atom    2 type  2   force =    -0.00000445   -0.00000707    0.00000406
     atom    3 type  3   force =    -0.00000408   -0.00000729    0.00000390
     atom    4 type  4   force =    -0.00000358   -0.00000695    0.00000347
     atom    5 type  5   force =     0.00000405    0.00000689   -0.00000374
     atom    6 type  5   force =     0.00000388    0.00000720   -0.00000374
     atom    7 type  5   force =     0.00000393    0.00000692   -0.00000368
     atom    8 type  5   force =     0.00000400    0.00000720   -0.00000383
     The non-local contrib.  to forces
     atom    1 type  1   force =     0.00278083   -0.00130817   -0.00106994
     atom    2 type  2   force =     0.00278118   -0.00130785   -0.00107028
     atom    3 type  3   force =     0.00278221   -0.00130848   -0.00107069
     atom    4 type  4   force =     0.00278167   -0.00130858   -0.00107031
     atom    5 type  5   force =    -0.00187578    0.00096781    0.00078553
     atom    6 type  5   force =    -0.00187596    0.00096809    0.00078555
     atom    7 type  5   force =    -0.00187609    0.00096790    0.00078569
     atom    8 type  5   force =    -0.00187593    0.00096815    0.00078550
     The ionic contribution  to forces
     atom    1 type  1   force =     0.30699400   -0.17556221   -0.12596928
     atom    2 type  2   force =     0.30695793   -0.17560111   -0.12593343
     atom    3 type  3   force =     0.30690428   -0.17554822   -0.12591940
     atom    4 type  4   force =     0.30693958   -0.17555176   -0.12593975
     atom    5 type  5   force =    -0.30695699    0.17556504    0.12594582
     atom    6 type  5   force =    -0.30696073    0.17557741    0.12594357
     atom    7 type  5   force =    -0.30694013    0.17555578    0.12593838
     atom    8 type  5   force =    -0.30693795    0.17556506    0.12593410
     The local contribution  to forces
     atom    1 type  1   force =    -0.31334358    0.17893094    0.12849499
     atom    2 type  2   force =    -0.31330817    0.17896907    0.12845982
     atom    3 type  3   force =    -0.31325640    0.17891775    0.12844639
     atom    4 type  4   force =    -0.31329101    0.17892114    0.12846637
     atom    5 type  5   force =     0.30819151   -0.17616026   -0.12646818
     atom    6 type  5   force =     0.30819498   -0.17617216   -0.12646593
     atom    7 type  5   force =     0.30817453   -0.17615116   -0.12646062
     atom    8 type  5   force =     0.30817250   -0.17615971   -0.12645669
     The core correction contribution to forces
     atom    1 type  1   force =     0.00327875   -0.00190371   -0.00133469
     atom    2 type  2   force =     0.00327843   -0.00190385   -0.00133444
     atom    3 type  3   force =     0.00327823   -0.00190368   -0.00133438
     atom    4 type  4   force =     0.00327854   -0.00190362   -0.00133460
     atom    5 type  5   force =     0.00035842   -0.00020187   -0.00014902
     atom    6 type  5   force =     0.00035842   -0.00020188   -0.00014902
     atom    7 type  5   force =     0.00035842   -0.00020187   -0.00014902
     atom    8 type  5   force =     0.00035841   -0.00020188   -0.00014901
     The Hubbard contrib.    to forces
     atom    1 type  1   force =     0.00000000    0.00000000    0.00000000
     atom    2 type  2   force =     0.00000000    0.00000000    0.00000000
     atom    3 type  3   force =     0.00000000    0.00000000    0.00000000
     atom    4 type  4   force =     0.00000000    0.00000000    0.00000000
     atom    5 type  5   force =     0.00000000    0.00000000    0.00000000
     atom    6 type  5   force =     0.00000000    0.00000000    0.00000000
     atom    7 type  5   force =     0.00000000    0.00000000    0.00000000
     atom    8 type  5   force =     0.00000000    0.00000000    0.00000000
     The SCF correction term to forces
     atom    1 type  1   force =    -0.00000083    0.00000031    0.00000040
     atom    2 type  2   force =    -0.00000090    0.00000073    0.00000030
     atom    3 type  3   force =     0.00000051   -0.00000058   -0.00000011
     atom    4 type  4   force =     0.00000056   -0.00000006   -0.00000033
     atom    5 type  5   force =    -0.00000020    0.00000025    0.00000003
     atom    6 type  5   force =     0.00000009   -0.00000018    0.00000001
     atom    7 type  5   force =     0.00000011    0.00000034   -0.00000019
     atom    8 type  5   force =    -0.00000012   -0.00000035    0.00000020

     Total force =     0.000025     Total SCF correction =     0.000002
     Energy error            =      1.5E-07 Ry
     Gradient error          =      7.3E-06 Ry/Bohr

     bfgs converged in   6 scf cycles and   5 bfgs steps
     (criteria: energy <  1.0E-05 Ry, force <  1.0E-04 Ry/Bohr)

     End of BFGS Geometry Optimization

     Final energy             =   -1411.1169782531 Ry

     File ./temp/mns.bfgs deleted, as requested
Begin final coordinates

ATOMIC_POSITIONS (crystal)
Mn1              0.3697849642        0.3767097579        0.7535063348
Mn2              0.3697851249        0.8767099362        0.7535059848
Mn3              0.8697854251        0.3767097702        0.7535058582
Mn4              0.8697852497        0.8767097036        0.7535061026
S                0.0052147427       -0.0017097572       -0.0035060375
S                0.0052147887        0.4982902023       -0.0035060455
S                0.5052148481       -0.0017097438       -0.0035061616
S                0.5052148564        0.4982901309       -0.0035060358
End final coordinates

     Writing all to output data dir ./temp/mns.save/ :
     XML data file, charge density, pseudopotentials, collected wavefunctions

     General routines

     Parallel routines

     PAW routines

   This run was terminated on:   7:17: 2  20Jan2025

   JOB DONE.