     Program PWSCF v.7.3.1 starts on 31Jan2025 at 11:33:33

     Reading input from vc_relax.in

     Current dimensions of program PWSCF are:
     Max number of different atomic species (ntypx) = 10
     Max number of k-points (npk) =  40000
     Max angular momentum in pseudopotentials (lmaxx) =  4
     file Mn.pbe-spn-kjpaw_psl.0.3.1.UPF: wavefunction(s)  3P 3D renormalized
     file Mn.pbe-spn-kjpaw_psl.0.3.1.UPF: wavefunction(s)  3P 3D renormalized
     file S.pbe-n-kjpaw_psl.1.0.0.UPF: wavefunction(s)  3S 3P renormalized
     Message from routine setup:
     using ibrav=0 with symmetry is DISCOURAGED, use correct ibrav instead

     R & G space division:  proc/nbgrp/npool/nimage =       6
     Subspace diagonalization in iterative solution of the eigenvalue problem:
     a serial algorithm will be used

     Using Slab Decomposition

     bravais-lattice index     =            0
     lattice parameter (alat)  =      14.7866  a.u.
     unit-cell volume          =     571.5148 (a.u.)^3
     number of atoms/cell      =            4
     number of atomic types    =            3
     number of electrons       =        42.00
     number of Kohn-Sham states=           25
     kinetic-energy cutoff     =      30.0000  Ry
     charge density cutoff     =     150.0000  Ry
     scf convergence threshold =      1.0E-10
     mixing beta               =       0.7000
     number of iterations used =            8  plain     mixing
     energy convergence thresh.=      1.0E-05
     force convergence thresh. =      1.0E-04
     press convergence thresh. =      5.0E-01
     Exchange-correlation= SLA  PW   PBX  PBC
                           (   1   4   3   4   0   0   0)
     nstep                     =           50

     celldm(1)=  14.786571  celldm(2)=   0.000000  celldm(3)=   0.000000
     celldm(4)=   0.000000  celldm(5)=   0.000000  celldm(6)=   0.000000

     crystal axes: (cart. coord. in units of alat)
               a(1) = (   1.000000   0.000000   0.000000 )
               a(2) = (   0.250000   0.433013   0.000000 )
               a(3) = (   0.250000   0.144338   0.408248 )

     reciprocal axes: (cart. coord. in units 2 pi/alat)
               b(1) = (  1.000000 -0.577350 -0.408248 )
               b(2) = (  0.000000  2.309401 -0.816496 )
               b(3) = (  0.000000  0.000000  2.449490 )

     PseudoPot. # 1 for Mn read from file:
     ./../../../pseudos/Mn.pbe-spn-kjpaw_psl.0.3.1.UPF
     MD5 check sum: ba19e6d7ccbc12830efad05ba8577d9c
     Pseudo is Projector augmented-wave + core cor, Zval = 15.0
     Generated using &quot;atomic&quot; code by A. Dal Corso  v.6.2.2
     Shape of augmentation charge: PSQ
     Using radial grid of 1187 points,  6 beta functions with:
                l(1) =   0
                l(2) =   0
                l(3) =   1
                l(4) =   1
                l(5) =   2
                l(6) =   2
     Q(r) pseudized with 0 coefficients

[...]

     PseudoPot. # 3 for S  read from file:
     ./../../../pseudos/S.pbe-n-kjpaw_psl.1.0.0.UPF
     MD5 check sum: fb45dfebcf3e72a4e1bd4a866ec2e262
     Pseudo is Projector augmented-wave + core cor, Zval =  6.0
     Generated using &quot;atomic&quot; code by A. Dal Corso  v.6.3
     Shape of augmentation charge: PSQ
     Using radial grid of 1151 points,  6 beta functions with:
                l(1) =   0
                l(2) =   0
                l(3) =   1
                l(4) =   1
                l(5) =   2
                l(6) =   2
     Q(r) pseudized with 0 coefficients

     atomic species   valence    mass     pseudopotential
     Mn1              15.00    54.93800     Mn( 1.00)
     Mn2              15.00    54.93800     Mn( 1.00)
     S                 6.00    32.06500     S ( 1.00)

      2 Sym. Ops. (no inversion) found

                                    s                        frac. trans.

      isym =  1     identity

 cryst.   s( 1) = (     1          0          0      )
                  (     0          1          0      )
                  (     0          0          1      )

 cart.    s( 1) = (  1.0000000  0.0000000  0.0000000 )
                  (  0.0000000  1.0000000  0.0000000 )
                  (  0.0000000  0.0000000  1.0000000 )

      isym =  2     inv. 180 deg rotation - cryst. axis [1,1,0]

[...]

   Cartesian axes

     site n.     atom                  positions (alat units)
         1        Mn1    tau(   1) = (   0.7491997   0.4334747   0.3066829  )
         2        Mn2    tau(   2) = (   1.2491999   0.4334746   0.3066829  )
         3        S      tau(   3) = (   0.0008002  -0.0004620  -0.0004967  )
         4        S      tau(   4) = (   0.5008001  -0.0004619  -0.0004966  )

   Crystallographic axes

     site n.     atom                  positions (cryst. coord.)
         1        Mn1    tau(   1) = (  0.3737302  0.7506615  0.7512167  )
         2        Mn2    tau(   2) = (  0.8737305  0.7506612  0.7512165  )
         3        S      tau(   3) = (  0.0012697 -0.0006614 -0.0012166  )
         4        S      tau(   4) = (  0.5012695 -0.0006613 -0.0012165  )

     number of k points=    38  Gaussian smearing, width (Ry)=  0.0100
                       cart. coord. in units 2pi/alat
        k(    1) = (   0.0000000   0.0000000   0.0000000), wk =   0.0266667
        k(    2) = (   0.0000000   0.0000000   0.4898979), wk =   0.0533333
        k(    3) = (   0.0000000   0.0000000   0.9797958), wk =   0.0533333
        k(    4) = (   0.0000000   0.4618802  -0.1632993), wk =   0.0533333
        k(    5) = (   0.0000000   0.4618802   0.3265986), wk =   0.0533333
        k(    6) = (   0.0000000   0.4618802   0.8164966), wk =   0.0533333
        k(    7) = (   0.0000000   0.4618802  -1.1430951), wk =   0.0533333
        k(    8) = (   0.0000000   0.4618802  -0.6531972), wk =   0.0533333
        k(    9) = (   0.0000000   0.9237604  -0.3265986), wk =   0.0533333
        k(   10) = (   0.0000000   0.9237604   0.1632993), wk =   0.0533333
        k(   11) = (   0.0000000   0.9237604   0.6531973), wk =   0.0533333
        k(   12) = (   0.0000000   0.9237604  -1.3063944), wk =   0.0533333
        k(   13) = (   0.0000000   0.9237604  -0.8164965), wk =   0.0533333
        k(   14) = (   0.3333333  -0.1924501  -0.1360827), wk =   0.0533333
        k(   15) = (   0.3333333  -0.1924501   0.3538152), wk =   0.0533333
        k(   16) = (   0.3333333  -0.1924501   0.8437131), wk =   0.0533333
        k(   17) = (   0.3333333  -0.1924501  -1.1158786), wk =   0.0533333
        k(   18) = (   0.3333333  -0.1924501  -0.6259807), wk =   0.0533333
        k(   19) = (   0.3333333   0.2694301  -0.2993820), wk =   0.0533333
        k(   20) = (   0.3333333   0.2694301   0.1905159), wk =   0.0533333
        k(   21) = (   0.3333333   0.2694301   0.6804138), wk =   0.0533333
        k(   22) = (   0.3333333   0.2694301  -1.2791779), wk =   0.0533333
        k(   23) = (   0.3333333   0.2694301  -0.7892800), wk =   0.0533333
        k(   24) = (   0.3333333   0.7313103  -0.4626813), wk =   0.0533333
        k(   25) = (   0.3333333   0.7313103   0.0272166), wk =   0.0533333
        k(   26) = (   0.3333333   0.7313103   0.5171145), wk =   0.0533333
        k(   27) = (   0.3333333   0.7313103  -1.4424772), wk =   0.0533333
        k(   28) = (   0.3333333   0.7313103  -0.9525793), wk =   0.0533333
        k(   29) = (   0.3333333  -1.1162105   0.1905158), wk =   0.0533333
        k(   30) = (   0.3333333  -1.1162105   0.6804138), wk =   0.0533333
        k(   31) = (   0.3333333  -1.1162105   1.1703117), wk =   0.0533333
        k(   32) = (   0.3333333  -1.1162105  -0.7892800), wk =   0.0533333
        k(   33) = (   0.3333333  -1.1162105  -0.2993821), wk =   0.0533333
        k(   34) = (   0.3333333  -0.6543303   0.0272165), wk =   0.0533333
        k(   35) = (   0.3333333  -0.6543303   0.5171145), wk =   0.0533333
        k(   36) = (   0.3333333  -0.6543303   1.0070124), wk =   0.0533333
        k(   37) = (   0.3333333  -0.6543303  -0.9525793), wk =   0.0533333
        k(   38) = (   0.3333333  -0.6543303  -0.4626814), wk =   0.0533333

                       cryst. coord.
        k(    1) = (   0.0000000   0.0000000   0.0000000), wk =   0.0266667
        k(    2) = (   0.0000000   0.0000000   0.2000000), wk =   0.0533333
        k(    3) = (   0.0000000   0.0000000   0.4000000), wk =   0.0533333
        k(    4) = (   0.0000000   0.2000000   0.0000000), wk =   0.0533333
        k(    5) = (   0.0000000   0.2000000   0.2000000), wk =   0.0533333
        k(    6) = (   0.0000000   0.2000000   0.4000000), wk =   0.0533333
        k(    7) = (   0.0000000   0.2000000  -0.4000000), wk =   0.0533333
        k(    8) = (   0.0000000   0.2000000  -0.2000000), wk =   0.0533333
        k(    9) = (   0.0000000   0.4000000   0.0000000), wk =   0.0533333
        k(   10) = (   0.0000000   0.4000000   0.2000000), wk =   0.0533333
        k(   11) = (   0.0000000   0.4000000   0.4000000), wk =   0.0533333
        k(   12) = (   0.0000000   0.4000000  -0.4000000), wk =   0.0533333
        k(   13) = (   0.0000000   0.4000000  -0.2000000), wk =   0.0533333
        k(   14) = (   0.3333333  -0.0000000  -0.0000000), wk =   0.0533333
        k(   15) = (   0.3333333  -0.0000000   0.2000000), wk =   0.0533333
        k(   16) = (   0.3333333  -0.0000000   0.4000000), wk =   0.0533333
        k(   17) = (   0.3333333  -0.0000000  -0.4000000), wk =   0.0533333
        k(   18) = (   0.3333333  -0.0000000  -0.2000000), wk =   0.0533333
        k(   19) = (   0.3333333   0.2000000  -0.0000000), wk =   0.0533333
        k(   20) = (   0.3333333   0.2000000   0.2000000), wk =   0.0533333
        k(   21) = (   0.3333333   0.2000000   0.4000000), wk =   0.0533333
        k(   22) = (   0.3333333   0.2000000  -0.4000000), wk =   0.0533333
        k(   23) = (   0.3333333   0.2000000  -0.2000000), wk =   0.0533333
        k(   24) = (   0.3333333   0.4000000   0.0000000), wk =   0.0533333
        k(   25) = (   0.3333333   0.4000000   0.2000000), wk =   0.0533333
        k(   26) = (   0.3333333   0.4000000   0.4000000), wk =   0.0533333
        k(   27) = (   0.3333333   0.4000000  -0.4000000), wk =   0.0533333
        k(   28) = (   0.3333333   0.4000000  -0.2000000), wk =   0.0533333
        k(   29) = (   0.3333333  -0.4000000   0.0000000), wk =   0.0533333
        k(   30) = (   0.3333333  -0.4000000   0.2000000), wk =   0.0533333
        k(   31) = (   0.3333333  -0.4000000   0.4000000), wk =   0.0533333
        k(   32) = (   0.3333333  -0.4000000  -0.4000000), wk =   0.0533333
        k(   33) = (   0.3333333  -0.4000000  -0.2000000), wk =   0.0533333
        k(   34) = (   0.3333333  -0.2000000  -0.0000000), wk =   0.0533333
        k(   35) = (   0.3333333  -0.2000000   0.2000000), wk =   0.0533333
        k(   36) = (   0.3333333  -0.2000000   0.4000000), wk =   0.0533333
        k(   37) = (   0.3333333  -0.2000000  -0.4000000), wk =   0.0533333
        k(   38) = (   0.3333333  -0.2000000  -0.2000000), wk =   0.0533333

     Check: negative core charge=   -0.000237

     Initial potential from superposition of free atoms

     starting charge      41.9989, renormalised to      42.0000
[...]

[...]

     PseudoPot. # 2 for Mn read from file:
     ./../../../pseudos/Mn.pbe-spn-kjpaw_psl.0.3.1.UPF
     MD5 check sum: ba19e6d7ccbc12830efad05ba8577d9c
     Pseudo is Projector augmented-wave + core cor, Zval = 15.0
     Generated using &quot;atomic&quot; code by A. Dal Corso  v.6.2.2
     Shape of augmentation charge: PSQ
     Using radial grid of 1187 points,  6 beta functions with:
                l(1) =   0
                l(2) =   0
                l(3) =   1
                l(4) =   1
                l(5) =   2
                l(6) =   2
     Q(r) pseudized with 0 coefficients

     PseudoPot. # 3 for S  read from file:
     ./../../../pseudos/S.pbe-n-kjpaw_psl.1.0.0.UPF
     MD5 check sum: fb45dfebcf3e72a4e1bd4a866ec2e262
     Pseudo is Projector augmented-wave + core cor, Zval =  6.0
     Generated using &quot;atomic&quot; code by A. Dal Corso  v.6.3
     Shape of augmentation charge: PSQ
     Using radial grid of 1151 points,  6 beta functions with:
                l(1) =   0
                l(2) =   0
                l(3) =   1
                l(4) =   1
                l(5) =   2
                l(6) =   2
     Q(r) pseudized with 0 coefficients

     atomic species   valence    mass     pseudopotential
     Mn1              15.00    54.93800     Mn( 1.00)
     Mn2              15.00    54.93800     Mn( 1.00)
     S                 6.00    32.06500     S ( 1.00)

      2 Sym. Ops. (no inversion) found

                                    s                        frac. trans.

      isym =  1     identity

[...]

      isym =  2     inv. 180 deg rotation - cryst. axis [1,1,0]

 cryst.   s( 2) = (     1         -2          0      )
                  (     0         -1          0      )
                  (     0         -1          1      )

 cart.    s( 2) = (  0.5000001 -0.8660253 -0.0000000 )
                  ( -0.8660254 -0.5000001 -0.0000001 )
                  (  0.0000000  0.0000000  1.0000000 )

   Cartesian axes

     site n.     atom                  positions (alat units)
         1        Mn1    tau(   1) = (   0.6676016   0.3816166   0.2714196  )
         2        Mn2    tau(   2) = (   1.1156564   0.3786176   0.2705844  )
         3        S      tau(   3) = (   0.0013719  -0.0007921  -0.0008352  )
         4        S      tau(   4) = (   0.4494268  -0.0037912  -0.0016706  )

   Crystallographic axes

     site n.     atom                  positions (cryst. coord.)
         1        Mn1    tau(   1) = (  0.3725858  0.7512650  0.7522986  )
         2        Mn2    tau(   2) = (  0.8725857  0.7512650  0.7522987  )
         3        S      tau(   3) = (  0.0024142 -0.0012649 -0.0022986  )
         4        S      tau(   4) = (  0.5024143 -0.0012650 -0.0022987  )

     number of k points=    38  Gaussian smearing, width (Ry)=  0.0100
                       cart. coord. in units 2pi/alat
        k(    1) = (   0.0000000   0.0000000   0.0000000), wk =   0.0266667
        k(    2) = (   0.0010263  -0.0005925   0.5526523), wk =   0.0533333
        k(    3) = (   0.0020526  -0.0011851   1.1053045), wk =   0.0533333
        k(    4) = (   0.0031339   0.5196645  -0.1847759), wk =   0.0533333
        k(    5) = (   0.0041602   0.5190720   0.3678763), wk =   0.0533333
        k(    6) = (   0.0051865   0.5184794   0.9205286), wk =   0.0533333
        k(    7) = (   0.0010812   0.5208496  -1.2900805), wk =   0.0533333
        k(    8) = (   0.0021076   0.5202571  -0.7374282), wk =   0.0533333
        k(    9) = (   0.0062678   1.0393290  -0.3695519), wk =   0.0533333
        k(   10) = (   0.0072941   1.0387365   0.1831004), wk =   0.0533333
        k(   11) = (   0.0083204   1.0381440   0.7357526), wk =   0.0533333
        k(   12) = (   0.0042151   1.0405141  -1.4748564), wk =   0.0533333
        k(   13) = (   0.0052415   1.0399216  -0.9222041), wk =   0.0533333
        k(   14) = (   0.3702630  -0.2137714  -0.1525836), wk =   0.0533333
        k(   15) = (   0.3712893  -0.2143639   0.4000687), wk =   0.0533333
        k(   16) = (   0.3723156  -0.2149565   0.9527209), wk =   0.0533333
        k(   17) = (   0.3682103  -0.2125863  -1.2578881), wk =   0.0533333
        k(   18) = (   0.3692366  -0.2131788  -0.7052358), wk =   0.0533333
        k(   19) = (   0.3733968   0.3058931  -0.3373595), wk =   0.0533333
        k(   20) = (   0.3744232   0.3053006   0.2152927), wk =   0.0533333
        k(   21) = (   0.3754495   0.3047081   0.7679450), wk =   0.0533333
        k(   22) = (   0.3713442   0.3070782  -1.4426640), wk =   0.0533333
        k(   23) = (   0.3723705   0.3064857  -0.8900118), wk =   0.0533333
        k(   24) = (   0.3765307   0.8255577  -0.5221355), wk =   0.0533333
        k(   25) = (   0.3775571   0.8249651   0.0305168), wk =   0.0533333
        k(   26) = (   0.3785834   0.8243726   0.5831690), wk =   0.0533333
        k(   27) = (   0.3744781   0.8267428  -1.6274400), wk =   0.0533333
        k(   28) = (   0.3755044   0.8261502  -1.0747877), wk =   0.0533333
        k(   29) = (   0.3639952  -1.2531004   0.2169683), wk =   0.0533333
        k(   30) = (   0.3650215  -1.2536930   0.7696206), wk =   0.0533333
        k(   31) = (   0.3660478  -1.2542855   1.3222728), wk =   0.0533333
        k(   32) = (   0.3619425  -1.2519153  -0.8883362), wk =   0.0533333
        k(   33) = (   0.3629689  -1.2525079  -0.3356840), wk =   0.0533333
        k(   34) = (   0.3671291  -0.7334359   0.0321924), wk =   0.0533333
        k(   35) = (   0.3681554  -0.7340284   0.5848446), wk =   0.0533333
        k(   36) = (   0.3691817  -0.7346210   1.1374969), wk =   0.0533333
        k(   37) = (   0.3650764  -0.7322508  -1.0731122), wk =   0.0533333
        k(   38) = (   0.3661027  -0.7328434  -0.5204599), wk =   0.0533333

                       cryst. coord.
        k(    1) = (   0.0000000   0.0000000   0.0000000), wk =   0.0266667
        k(    2) = (   0.0000000  -0.0000000   0.2000000), wk =   0.0533333
        k(    3) = (   0.0000000  -0.0000000   0.4000000), wk =   0.0533333
        k(    4) = (  -0.0000000   0.2000000   0.0000000), wk =   0.0533333
        k(    5) = (  -0.0000000   0.2000000   0.2000000), wk =   0.0533333
        k(    6) = (   0.0000000   0.2000000   0.4000000), wk =   0.0533333
        k(    7) = (  -0.0000000   0.2000000  -0.4000000), wk =   0.0533333
        k(    8) = (  -0.0000000   0.2000000  -0.2000000), wk =   0.0533333
        k(    9) = (  -0.0000000   0.4000000   0.0000000), wk =   0.0533333
        k(   10) = (  -0.0000000   0.4000000   0.2000000), wk =   0.0533333
        k(   11) = (  -0.0000000   0.4000000   0.4000000), wk =   0.0533333
        k(   12) = (   0.0000000   0.4000000  -0.4000000), wk =   0.0533333
        k(   13) = (  -0.0000000   0.4000000  -0.2000000), wk =   0.0533333
        k(   14) = (   0.3333333  -0.0000000  -0.0000000), wk =   0.0533333
        k(   15) = (   0.3333333  -0.0000000   0.2000000), wk =   0.0533333
        k(   16) = (   0.3333333  -0.0000000   0.4000000), wk =   0.0533333
        k(   17) = (   0.3333333  -0.0000000  -0.4000000), wk =   0.0533333
        k(   18) = (   0.3333333  -0.0000000  -0.2000000), wk =   0.0533333
        k(   19) = (   0.3333333   0.2000000   0.0000000), wk =   0.0533333
        k(   20) = (   0.3333333   0.2000000   0.2000000), wk =   0.0533333
        k(   21) = (   0.3333333   0.2000000   0.4000000), wk =   0.0533333
        k(   22) = (   0.3333333   0.2000000  -0.4000000), wk =   0.0533333
        k(   23) = (   0.3333333   0.2000000  -0.2000000), wk =   0.0533333
        k(   24) = (   0.3333333   0.4000000   0.0000000), wk =   0.0533333
        k(   25) = (   0.3333333   0.4000000   0.2000000), wk =   0.0533333
        k(   26) = (   0.3333333   0.4000000   0.4000000), wk =   0.0533333
        k(   27) = (   0.3333333   0.4000000  -0.4000000), wk =   0.0533333
        k(   28) = (   0.3333333   0.4000000  -0.2000000), wk =   0.0533333
        k(   29) = (   0.3333333  -0.4000000  -0.0000000), wk =   0.0533333
        k(   30) = (   0.3333333  -0.4000000   0.2000000), wk =   0.0533333
        k(   31) = (   0.3333333  -0.4000000   0.4000000), wk =   0.0533333
        k(   32) = (   0.3333333  -0.4000000  -0.4000000), wk =   0.0533333
        k(   33) = (   0.3333333  -0.4000000  -0.2000000), wk =   0.0533333
        k(   34) = (   0.3333333  -0.2000000  -0.0000000), wk =   0.0533333
        k(   35) = (   0.3333333  -0.2000000   0.2000000), wk =   0.0533333
        k(   36) = (   0.3333333  -0.2000000   0.4000000), wk =   0.0533333
        k(   37) = (   0.3333333  -0.2000000  -0.4000000), wk =   0.0533333
        k(   38) = (   0.3333333  -0.2000000  -0.2000000), wk =   0.0533333

     Check: negative core charge=   -0.000272

     Initial potential from superposition of free atoms

     starting charge      41.9989, renormalised to      42.0000
     Starting wfcs are   28 randomized atomic wfcs
     Checking if some PAW data can be deallocated...

     Self-consistent Calculation

[...]

     c_bands:  1 eigenvalues not converged
     c_bands:  2 eigenvalues not converged
     c_bands:  1 eigenvalues not converged
     c_bands:  1 eigenvalues not converged
     c_bands:  2 eigenvalues not converged
     c_bands:  1 eigenvalues not converged
     c_bands:  1 eigenvalues not converged
     ethr =  1.00E-06,  avg # of iterations = 16.8

[...]

     total energy              =    -705.46376117 Ry
     estimated scf accuracy    <          2.4E-11 Ry

     iteration # 16     ecut=    30.00 Ry     beta= 0.70
     Davidson diagonalization with overlap

     ethr =  1.00E-13,  avg # of iterations =  1.0

     End of self-consistent calculation

[...]

          k = 0.3661-0.7328-0.5205 (  1125 PWs)   bands (ev):

   -67.4744 -67.4739 -36.2744 -36.2679 -36.2572 -36.2569 -36.2532 -36.2498
    -2.7966  -2.4400   5.7319   6.1023   7.1222   7.2594   7.3661   7.4817
    10.4990  10.7743  11.2075  11.4486  12.3350  13.0730  13.4287  13.8042
    14.1218

     occupation numbers
     1.0000   1.0000   1.0000   1.0000   1.0000   1.0000   1.0000   1.0000
     1.0000   1.0000   1.0000   1.0000   1.0000   1.0000   1.0000   1.0000
     1.0000   1.0000   1.0000   1.0000   0.0000   0.0000   0.0000   0.0000
     0.0000

     the Fermi energy is    11.8921 ev

!    total energy              =    -705.46376117 Ry
     total all-electron energy =     -6231.180568 Ry
     estimated scf accuracy    <          2.1E-13 Ry
     smearing contrib. (-TS)   =      -0.00292948 Ry
     internal energy E=F+TS    =    -705.46083169 Ry

     The total energy is F=E-TS. E is the sum of the following terms:
     one-electron contribution =    -254.84212008 Ry
     hartree contribution      =     150.98042977 Ry
     xc contribution           =     -66.10866499 Ry
     ewald contribution        =    -288.04783848 Ry
     one-center paw contrib.   =    -247.44263792 Ry
      -> PAW hartree energy AE =     184.45672324 Ry
      -> PAW hartree energy PS =    -185.36863785 Ry
      -> PAW xc energy AE      =    -104.70122085 Ry
      -> PAW xc energy PS      =      28.02425101 Ry
      -> total E_H with PAW    =     150.06851516 Ry
      -> total E_XC with PAW   =    -142.78563483 Ry

     convergence has been achieved in  16 iterations

     Forces acting on atoms (cartesian axes, Ry/au):

     atom    1 type  1   force =    -0.00045417    0.00026221    0.00043962
     atom    2 type  2   force =    -0.00045338    0.00026176    0.00043931
     atom    3 type  3   force =     0.00045398   -0.00026211   -0.00043955
     atom    4 type  3   force =     0.00045357   -0.00026187   -0.00043937
     The non-local contrib.  to forces
     atom    1 type  1   force =    -0.00574227    0.00331530    0.00483923
     atom    2 type  2   force =    -0.00574227    0.00331530    0.00483924
     atom    3 type  3   force =    -0.00601686    0.00347383    0.00314296
     atom    4 type  3   force =    -0.00601728    0.00347408    0.00314314
     The ionic contribution  to forces
     atom    1 type  1   force =    -0.11961703    0.06905843    0.07591635
     atom    2 type  2   force =    -0.11959296    0.06904461    0.07590722
     atom    3 type  3   force =     0.11961147   -0.06905530   -0.07591423
     atom    4 type  3   force =     0.11959853   -0.06904774   -0.07590934
     The local contribution  to forces
     atom    1 type  1   force =     0.12535993   -0.07237642   -0.08059622
     atom    2 type  2   force =     0.12533639   -0.07236019   -0.08058680
     atom    3 type  3   force =    -0.11314027    0.06531965    0.07241753
     atom    4 type  3   force =    -0.11312760    0.06531234    0.07241277
     The core correction contribution to forces
     atom    1 type  1   force =    -0.00031225    0.00026356    0.00031536
     atom    2 type  2   force =    -0.00031219    0.00026356    0.00031534
     atom    3 type  3   force =     0.00010715   -0.00006107   -0.00005048
     atom    4 type  3   force =     0.00010717   -0.00006108   -0.00005049
     The Hubbard contrib.    to forces
     atom    1 type  1   force =     0.00000000    0.00000000    0.00000000
     atom    2 type  2   force =     0.00000000    0.00000000    0.00000000
     atom    3 type  3   force =     0.00000000    0.00000000    0.00000000
     atom    4 type  3   force =     0.00000000    0.00000000    0.00000000
     The SCF correction term to forces
     atom    1 type  1   force =    -0.00000069    0.00000040    0.00000028
     atom    2 type  2   force =     0.00000069   -0.00000040   -0.00000031
     atom    3 type  3   force =    -0.00000015    0.00000009    0.00000006
     atom    4 type  3   force =     0.00000015   -0.00000008   -0.00000006

     Total force =     0.001368     Total SCF correction =     0.000001

     Computing stress (Cartesian axis) and pressure

          total   stress  (Ry/bohr**3)                   (kbar)     P=     -500.46
  -0.00337933  -0.00002590  -0.00000597         -497.12       -3.81       -0.88
  -0.00002590  -0.00340924   0.00000345           -3.81     -501.52        0.51
  -0.00000597   0.00000345  -0.00341756           -0.88        0.51     -502.74

     kinetic stress (kbar)  22476.97    -20.82     -0.89
                              -20.82  22452.92      0.51
                               -0.89      0.51  22446.09

     local   stress (kbar)   2240.91    218.49      8.36
                              218.49   2493.20     -4.83
                                8.36     -4.83   2556.24

     nonloc. stress (kbar)  -1572.11     20.44      3.95
                               20.44  -1548.51     -2.28
                                3.95     -2.28  -1538.70

     hartree stress (kbar)  18367.05    -35.87     21.59
                              -35.87  18325.63    -12.47
                               21.59    -12.47  18329.03

     exc-cor stress (kbar)  -3353.21     -1.04     -0.35
                               -1.04  -3354.39      0.19
                               -0.35      0.19  -3354.89

     corecor stress (kbar)  -3831.48     -0.10     -0.46
                               -0.10  -3831.27      0.32
                               -0.46      0.32  -3831.74

     ewald   stress (kbar) -34825.36   -184.99    -33.06
                             -184.99 -35038.97     19.09
                              -33.06     19.09 -35108.79

     hubbard stress (kbar)      0.00      0.00      0.00
                                0.00      0.00      0.00
                                0.00      0.00      0.00

     DFT-D   stress (kbar)      0.00      0.00      0.00
                                0.00      0.00      0.00
                                0.00      0.00      0.00

     XDM     stress (kbar)      0.00      0.00      0.00
                                0.00      0.00      0.00
                                0.00      0.00      0.00

     dft-nl  stress (kbar)      0.00      0.00      0.00
                                0.00      0.00      0.00
                                0.00      0.00      0.00

     TS-vdW  stress (kbar)      0.00      0.00      0.00
                                0.00      0.00      0.00
                                0.00      0.00      0.00

     MDB     stress (kbar)      0.00      0.00      0.00
                                0.00      0.00      0.00
                                0.00      0.00      0.00

     3D-RISM stress (kbar)      0.00      0.00      0.00
                                0.00      0.00      0.00
                                0.00      0.00      0.00

     Writing all to output data dir ./temp/mns.save/ :
     XML data file, charge density, pseudopotentials, collected wavefunctions

     General routines

     Parallel routines

     PAW routines

   This run was terminated on:  11:37:21  31Jan2025

   JOB DONE.