     Program PWSCF v.7.3.1 starts on 17Jan2025 at 23:30:54

     Reading input from vc_relax.in

     Current dimensions of program PWSCF are:
     Max number of different atomic species (ntypx) = 10
     Max number of k-points (npk) =  40000
     Max angular momentum in pseudopotentials (lmaxx) =  4
     file Mn.pbe-spn-kjpaw_psl.0.3.1.UPF: wavefunction(s)  3P 3D renormalized
     file Mn.pbe-spn-kjpaw_psl.0.3.1.UPF: wavefunction(s)  3P 3D renormalized
     file S.pbe-n-kjpaw_psl.1.0.0.UPF: wavefunction(s)  3S 3P renormalized
     Message from routine setup:
     using ibrav=0 with symmetry is DISCOURAGED, use correct ibrav instead

     R & G space division:  proc/nbgrp/npool/nimage =       4
     Subspace diagonalization in iterative solution of the eigenvalue problem:
     a serial algorithm will be used

     Using Slab Decomposition

     bravais-lattice index     =            0
     lattice parameter (alat)  =      14.7866  a.u.
     unit-cell volume          =     571.5148 (a.u.)^3
     number of atoms/cell      =            4
     number of atomic types    =            3
     number of electrons       =        42.00
     number of Kohn-Sham states=           25
     kinetic-energy cutoff     =      30.0000  Ry
     charge density cutoff     =     150.0000  Ry
     scf convergence threshold =      1.0E-10
     mixing beta               =       0.7000
     number of iterations used =            8  plain     mixing
     energy convergence thresh.=      1.0E-05
     force convergence thresh. =      1.0E-04
     press convergence thresh. =      5.0E-01
     Exchange-correlation= SLA  PW   PBX  PBC
                           (   1   4   3   4   0   0   0)
     nstep                     =           50

     celldm(1)=  14.786571  celldm(2)=   0.000000  celldm(3)=   0.000000
     celldm(4)=   0.000000  celldm(5)=   0.000000  celldm(6)=   0.000000

     crystal axes: (cart. coord. in units of alat)
               a(1) = (   1.000000   0.000000   0.000000 )
               a(2) = (   0.250000   0.433013   0.000000 )
               a(3) = (   0.250000   0.144338   0.408248 )

     reciprocal axes: (cart. coord. in units 2 pi/alat)
               b(1) = (  1.000000 -0.577350 -0.408248 )
               b(2) = (  0.000000  2.309401 -0.816496 )
               b(3) = (  0.000000  0.000000  2.449490 )

     PseudoPot. # 1 for Mn read from file:
     ./../../../pseudos/Mn.pbe-spn-kjpaw_psl.0.3.1.UPF
     MD5 check sum: ba19e6d7ccbc12830efad05ba8577d9c
     Pseudo is Projector augmented-wave + core cor, Zval = 15.0
     Generated using &quot;atomic&quot; code by A. Dal Corso  v.6.2.2
     Shape of augmentation charge: PSQ
     Using radial grid of 1187 points,  6 beta functions with:
                l(1) =   0
                l(2) =   0
                l(3) =   1
                l(4) =   1
                l(5) =   2
                l(6) =   2
     Q(r) pseudized with 0 coefficients

[...]

     PseudoPot. # 3 for S  read from file:
     ./../../../pseudos/S.pbe-n-kjpaw_psl.1.0.0.UPF
     MD5 check sum: fb45dfebcf3e72a4e1bd4a866ec2e262
     Pseudo is Projector augmented-wave + core cor, Zval =  6.0
     Generated using &quot;atomic&quot; code by A. Dal Corso  v.6.3
     Shape of augmentation charge: PSQ
     Using radial grid of 1151 points,  6 beta functions with:
                l(1) =   0
                l(2) =   0
                l(3) =   1
                l(4) =   1
                l(5) =   2
                l(6) =   2
     Q(r) pseudized with 0 coefficients

     atomic species   valence    mass     pseudopotential
     Mn1              15.00    54.93800     Mn( 1.00)
     Mn2              15.00    54.93800     Mn( 1.00)
     S                 6.00    32.06500     S ( 1.00)

     Starting magnetic structure
     atomic species   magnetization
     Mn1             0.200
     Mn2             0.200
     S               0.000

      2 Sym. Ops. (no inversion) found

                                    s                        frac. trans.

      isym =  1     identity

 cryst.   s( 1) = (     1          0          0      )
                  (     0          1          0      )
                  (     0          0          1      )

 cart.    s( 1) = (  1.0000000  0.0000000  0.0000000 )
                  (  0.0000000  1.0000000  0.0000000 )
                  (  0.0000000  0.0000000  1.0000000 )

      isym =  2     inv. 180 deg rotation - cryst. axis [1,1,0]

[...]

   Cartesian axes

     site n.     atom                  positions (alat units)
         1        Mn1    tau(   1) = (   0.7484265   0.4339211   0.3071759  )
         2        Mn2    tau(   2) = (   1.2484266   0.4339211   0.3071759  )
         3        S      tau(   3) = (   0.5015735   0.5764418   0.4072585  )
         4        S      tau(   4) = (   1.0015732   0.5764420   0.4072587  )

   Crystallographic axes

     site n.     atom                  positions (cryst. coord.)
         1        Mn1    tau(   1) = (  0.3724981  0.7512898  0.7524242  )
         2        Mn2    tau(   2) = (  0.8724981  0.7512898  0.7524243  )
         3        S      tau(   3) = (  0.0025022  0.9987100  0.9975756  )
         4        S      tau(   4) = (  0.5025017  0.9987104  0.9975759  )

     number of k points=    38  Gaussian smearing, width (Ry)=  0.0100
                       cart. coord. in units 2pi/alat
        k(    1) = (   0.0000000   0.0000000   0.0000000), wk =   0.0133333
        k(    2) = (   0.0000000   0.0000000   0.4898979), wk =   0.0266667
        k(    3) = (   0.0000000   0.0000000   0.9797958), wk =   0.0266667
        k(    4) = (   0.0000000   0.4618802  -0.1632993), wk =   0.0266667
        k(    5) = (   0.0000000   0.4618802   0.3265986), wk =   0.0266667
        k(    6) = (   0.0000000   0.4618802   0.8164966), wk =   0.0266667
        k(    7) = (   0.0000000   0.4618802  -1.1430951), wk =   0.0266667
        k(    8) = (   0.0000000   0.4618802  -0.6531972), wk =   0.0266667
        k(    9) = (   0.0000000   0.9237604  -0.3265986), wk =   0.0266667
        k(   10) = (   0.0000000   0.9237604   0.1632993), wk =   0.0266667
        k(   11) = (   0.0000000   0.9237604   0.6531973), wk =   0.0266667
        k(   12) = (   0.0000000   0.9237604  -1.3063944), wk =   0.0266667
        k(   13) = (   0.0000000   0.9237604  -0.8164965), wk =   0.0266667
        k(   14) = (   0.3333333  -0.1924501  -0.1360827), wk =   0.0266667
        k(   15) = (   0.3333333  -0.1924501   0.3538152), wk =   0.0266667
        k(   16) = (   0.3333333  -0.1924501   0.8437131), wk =   0.0266667
        k(   17) = (   0.3333333  -0.1924501  -1.1158786), wk =   0.0266667
        k(   18) = (   0.3333333  -0.1924501  -0.6259807), wk =   0.0266667
        k(   19) = (   0.3333333   0.2694301  -0.2993820), wk =   0.0266667
        k(   20) = (   0.3333333   0.2694301   0.1905159), wk =   0.0266667
        k(   21) = (   0.3333333   0.2694301   0.6804138), wk =   0.0266667
        k(   22) = (   0.3333333   0.2694301  -1.2791779), wk =   0.0266667
        k(   23) = (   0.3333333   0.2694301  -0.7892800), wk =   0.0266667
        k(   24) = (   0.3333333   0.7313103  -0.4626813), wk =   0.0266667
        k(   25) = (   0.3333333   0.7313103   0.0272166), wk =   0.0266667
        k(   26) = (   0.3333333   0.7313103   0.5171145), wk =   0.0266667
        k(   27) = (   0.3333333   0.7313103  -1.4424772), wk =   0.0266667
        k(   28) = (   0.3333333   0.7313103  -0.9525793), wk =   0.0266667
        k(   29) = (   0.3333333  -1.1162105   0.1905158), wk =   0.0266667
        k(   30) = (   0.3333333  -1.1162105   0.6804138), wk =   0.0266667
        k(   31) = (   0.3333333  -1.1162105   1.1703117), wk =   0.0266667
        k(   32) = (   0.3333333  -1.1162105  -0.7892800), wk =   0.0266667
        k(   33) = (   0.3333333  -1.1162105  -0.2993821), wk =   0.0266667
        k(   34) = (   0.3333333  -0.6543303   0.0272165), wk =   0.0266667
        k(   35) = (   0.3333333  -0.6543303   0.5171145), wk =   0.0266667
        k(   36) = (   0.3333333  -0.6543303   1.0070124), wk =   0.0266667
        k(   37) = (   0.3333333  -0.6543303  -0.9525793), wk =   0.0266667
        k(   38) = (   0.3333333  -0.6543303  -0.4626814), wk =   0.0266667

                       cryst. coord.
        k(    1) = (   0.0000000   0.0000000   0.0000000), wk =   0.0133333
        k(    2) = (   0.0000000   0.0000000   0.2000000), wk =   0.0266667
        k(    3) = (   0.0000000   0.0000000   0.4000000), wk =   0.0266667
        k(    4) = (   0.0000000   0.2000000   0.0000000), wk =   0.0266667
        k(    5) = (   0.0000000   0.2000000   0.2000000), wk =   0.0266667
        k(    6) = (   0.0000000   0.2000000   0.4000000), wk =   0.0266667
        k(    7) = (   0.0000000   0.2000000  -0.4000000), wk =   0.0266667
        k(    8) = (   0.0000000   0.2000000  -0.2000000), wk =   0.0266667
        k(    9) = (   0.0000000   0.4000000   0.0000000), wk =   0.0266667
        k(   10) = (   0.0000000   0.4000000   0.2000000), wk =   0.0266667
        k(   11) = (   0.0000000   0.4000000   0.4000000), wk =   0.0266667
        k(   12) = (   0.0000000   0.4000000  -0.4000000), wk =   0.0266667
        k(   13) = (   0.0000000   0.4000000  -0.2000000), wk =   0.0266667
        k(   14) = (   0.3333333  -0.0000000  -0.0000000), wk =   0.0266667
        k(   15) = (   0.3333333  -0.0000000   0.2000000), wk =   0.0266667
        k(   16) = (   0.3333333  -0.0000000   0.4000000), wk =   0.0266667
        k(   17) = (   0.3333333  -0.0000000  -0.4000000), wk =   0.0266667
        k(   18) = (   0.3333333  -0.0000000  -0.2000000), wk =   0.0266667
        k(   19) = (   0.3333333   0.2000000  -0.0000000), wk =   0.0266667
        k(   20) = (   0.3333333   0.2000000   0.2000000), wk =   0.0266667
        k(   21) = (   0.3333333   0.2000000   0.4000000), wk =   0.0266667
        k(   22) = (   0.3333333   0.2000000  -0.4000000), wk =   0.0266667
        k(   23) = (   0.3333333   0.2000000  -0.2000000), wk =   0.0266667
        k(   24) = (   0.3333333   0.4000000   0.0000000), wk =   0.0266667
        k(   25) = (   0.3333333   0.4000000   0.2000000), wk =   0.0266667
        k(   26) = (   0.3333333   0.4000000   0.4000000), wk =   0.0266667
        k(   27) = (   0.3333333   0.4000000  -0.4000000), wk =   0.0266667
        k(   28) = (   0.3333333   0.4000000  -0.2000000), wk =   0.0266667
        k(   29) = (   0.3333333  -0.4000000   0.0000000), wk =   0.0266667
        k(   30) = (   0.3333333  -0.4000000   0.2000000), wk =   0.0266667
        k(   31) = (   0.3333333  -0.4000000   0.4000000), wk =   0.0266667
        k(   32) = (   0.3333333  -0.4000000  -0.4000000), wk =   0.0266667
        k(   33) = (   0.3333333  -0.4000000  -0.2000000), wk =   0.0266667
        k(   34) = (   0.3333333  -0.2000000  -0.0000000), wk =   0.0266667
        k(   35) = (   0.3333333  -0.2000000   0.2000000), wk =   0.0266667
        k(   36) = (   0.3333333  -0.2000000   0.4000000), wk =   0.0266667
        k(   37) = (   0.3333333  -0.2000000  -0.4000000), wk =   0.0266667
        k(   38) = (   0.3333333  -0.2000000  -0.2000000), wk =   0.0266667

[...]
                l(1) =   0
                l(2) =   0
                l(3) =   1
                l(4) =   1
                l(5) =   2
                l(6) =   2
     Q(r) pseudized with 0 coefficients

     atomic species   valence    mass     pseudopotential
     Mn1              15.00    54.93800     Mn( 1.00)
     Mn2              15.00    54.93800     Mn( 1.00)
     S                 6.00    32.06500     S ( 1.00)

     Starting magnetic structure
     atomic species   magnetization
     Mn1             0.008
     Mn2             0.008
     S              -0.000

      2 Sym. Ops. (no inversion) found

                                    s                        frac. trans.

      isym =  1     identity

[...]

      isym =  2     inv. 180 deg rotation - cryst. axis [1,1,0]

 cryst.   s( 2) = (     1         -2          0      )
                  (     0         -1          0      )
                  (     0         -1          1      )

 cart.    s( 2) = (  0.5000001 -0.8660253 -0.0000000 )
                  ( -0.8660254 -0.5000001 -0.0000001 )
                  (  0.0000000  0.0000000  1.0000000 )

   Cartesian axes

     site n.     atom                  positions (alat units)
         1        Mn1    tau(   1) = (   0.6675788   0.3817847   0.2714468  )
         2        Mn2    tau(   2) = (   1.1155426   0.3788899   0.2706068  )
         3        S      tau(   3) = (   0.4452722   0.5101335   0.3608653  )
         4        S      tau(   4) = (   0.8932360   0.5072387   0.3600255  )

   Crystallographic axes

     site n.     atom                  positions (cryst. coord.)
         1        Mn1    tau(   1) = (  0.3726387  0.7512389  0.7522447  )
         2        Mn2    tau(   2) = (  0.8726411  0.7512375  0.7522429  )
         3        S      tau(   3) = (  0.0023589  0.9987626  0.9977568  )
         4        S      tau(   4) = (  0.5023613  0.9987610  0.9977555  )

     number of k points=    38  Gaussian smearing, width (Ry)=  0.0100
                       cart. coord. in units 2pi/alat
        k(    1) = (   0.0000000   0.0000000   0.0000000), wk =   0.0133333
        k(    2) = (   0.0010315  -0.0005955   0.5525493), wk =   0.0266667
        k(    3) = (   0.0020630  -0.0011910   1.1050985), wk =   0.0266667
        k(    4) = (   0.0030109   0.5196302  -0.1847474), wk =   0.0266667
        k(    5) = (   0.0040423   0.5190347   0.3678019), wk =   0.0266667
        k(    6) = (   0.0050738   0.5184392   0.9203511), wk =   0.0266667
        k(    7) = (   0.0009479   0.5208213  -1.2898459), wk =   0.0266667
        k(    8) = (   0.0019794   0.5202258  -0.7372967), wk =   0.0266667
        k(    9) = (   0.0060217   1.0392605  -0.3694948), wk =   0.0266667
        k(   10) = (   0.0070532   1.0386650   0.1830545), wk =   0.0266667
        k(   11) = (   0.0080847   1.0380695   0.7356037), wk =   0.0266667
        k(   12) = (   0.0039587   1.0404515  -1.4745933), wk =   0.0266667
        k(   13) = (   0.0049902   1.0398560  -0.9220440), wk =   0.0266667
        k(   14) = (   0.3703877  -0.2138434  -0.1525454), wk =   0.0266667
        k(   15) = (   0.3714192  -0.2144389   0.4000039), wk =   0.0266667
        k(   16) = (   0.3724507  -0.2150345   0.9525532), wk =   0.0266667
        k(   17) = (   0.3683248  -0.2126524  -1.2576439), wk =   0.0266667
        k(   18) = (   0.3693562  -0.2132479  -0.7050946), wk =   0.0266667
        k(   19) = (   0.3733986   0.3057868  -0.3372928), wk =   0.0266667
        k(   20) = (   0.3744301   0.3051913   0.2152565), wk =   0.0266667
        k(   21) = (   0.3754615   0.3045958   0.7678058), wk =   0.0266667
        k(   22) = (   0.3713356   0.3069779  -1.4423913), wk =   0.0266667
        k(   23) = (   0.3723671   0.3063824  -0.8898420), wk =   0.0266667
        k(   24) = (   0.3764094   0.8254171  -0.5220401), wk =   0.0266667
        k(   25) = (   0.3774409   0.8248216   0.0305091), wk =   0.0266667
        k(   26) = (   0.3784724   0.8242260   0.5830584), wk =   0.0266667
        k(   27) = (   0.3743465   0.8266081  -1.6271387), wk =   0.0266667
        k(   28) = (   0.3753779   0.8260126  -1.0745894), wk =   0.0266667
        k(   29) = (   0.3643660  -1.2531039   0.2169494), wk =   0.0266667
        k(   30) = (   0.3653975  -1.2536994   0.7694987), wk =   0.0266667
        k(   31) = (   0.3664290  -1.2542950   1.3220479), wk =   0.0266667
        k(   32) = (   0.3623031  -1.2519129  -0.8881491), wk =   0.0266667
        k(   33) = (   0.3633345  -1.2525084  -0.3355998), wk =   0.0266667
        k(   34) = (   0.3673769  -0.7334737   0.0322020), wk =   0.0266667
        k(   35) = (   0.3684083  -0.7340692   0.5847513), wk =   0.0266667
        k(   36) = (   0.3694398  -0.7346647   1.1373006), wk =   0.0266667
        k(   37) = (   0.3653139  -0.7322826  -1.0728965), wk =   0.0266667
        k(   38) = (   0.3663454  -0.7328781  -0.5203472), wk =   0.0266667

                       cryst. coord.
        k(    1) = (   0.0000000   0.0000000   0.0000000), wk =   0.0133333
        k(    2) = (   0.0000000   0.0000000   0.2000000), wk =   0.0266667
        k(    3) = (   0.0000000   0.0000000   0.4000000), wk =   0.0266667
        k(    4) = (  -0.0000000   0.2000000  -0.0000000), wk =   0.0266667
        k(    5) = (   0.0000000   0.2000000   0.2000000), wk =   0.0266667
        k(    6) = (  -0.0000000   0.2000000   0.4000000), wk =   0.0266667
        k(    7) = (  -0.0000000   0.2000000  -0.4000000), wk =   0.0266667
        k(    8) = (  -0.0000000   0.2000000  -0.2000000), wk =   0.0266667
        k(    9) = (  -0.0000000   0.4000000  -0.0000000), wk =   0.0266667
        k(   10) = (   0.0000000   0.4000000   0.2000000), wk =   0.0266667
        k(   11) = (   0.0000000   0.4000000   0.4000000), wk =   0.0266667
        k(   12) = (  -0.0000000   0.4000000  -0.4000000), wk =   0.0266667
        k(   13) = (  -0.0000000   0.4000000  -0.2000000), wk =   0.0266667
        k(   14) = (   0.3333333  -0.0000000  -0.0000000), wk =   0.0266667
        k(   15) = (   0.3333333  -0.0000000   0.2000000), wk =   0.0266667
        k(   16) = (   0.3333333  -0.0000000   0.4000000), wk =   0.0266667
        k(   17) = (   0.3333333  -0.0000000  -0.4000000), wk =   0.0266667
        k(   18) = (   0.3333333  -0.0000000  -0.2000000), wk =   0.0266667
        k(   19) = (   0.3333333   0.2000000  -0.0000000), wk =   0.0266667
        k(   20) = (   0.3333333   0.2000000   0.2000000), wk =   0.0266667
        k(   21) = (   0.3333333   0.2000000   0.4000000), wk =   0.0266667
        k(   22) = (   0.3333333   0.2000000  -0.4000000), wk =   0.0266667
        k(   23) = (   0.3333333   0.2000000  -0.2000000), wk =   0.0266667
        k(   24) = (   0.3333333   0.4000000   0.0000000), wk =   0.0266667
        k(   25) = (   0.3333333   0.4000000   0.2000000), wk =   0.0266667
        k(   26) = (   0.3333333   0.4000000   0.4000000), wk =   0.0266667
        k(   27) = (   0.3333333   0.4000000  -0.4000000), wk =   0.0266667
        k(   28) = (   0.3333333   0.4000000  -0.2000000), wk =   0.0266667
        k(   29) = (   0.3333333  -0.4000000  -0.0000000), wk =   0.0266667
        k(   30) = (   0.3333333  -0.4000000   0.2000000), wk =   0.0266667
        k(   31) = (   0.3333333  -0.4000000   0.4000000), wk =   0.0266667
        k(   32) = (   0.3333333  -0.4000000  -0.4000000), wk =   0.0266667
        k(   33) = (   0.3333333  -0.4000000  -0.2000000), wk =   0.0266667
        k(   34) = (   0.3333333  -0.2000000   0.0000000), wk =   0.0266667
        k(   35) = (   0.3333333  -0.2000000   0.2000000), wk =   0.0266667
        k(   36) = (   0.3333333  -0.2000000   0.4000000), wk =   0.0266667
        k(   37) = (   0.3333333  -0.2000000  -0.4000000), wk =   0.0266667
        k(   38) = (   0.3333333  -0.2000000  -0.2000000), wk =   0.0266667

     Check: negative core charge=   -0.000272
     Generating pointlists ...

     Initial potential from superposition of free atoms

     starting charge      41.9989, renormalised to      42.0000
     Starting wfcs are   28 randomized atomic wfcs
     Checking if some PAW data can be deallocated...

     Self-consistent Calculation

[...]

     c_bands:  1 eigenvalues not converged
     c_bands:  1 eigenvalues not converged
     c_bands:  2 eigenvalues not converged
     c_bands:  1 eigenvalues not converged
     c_bands:  2 eigenvalues not converged
     c_bands:  1 eigenvalues not converged
     c_bands:  1 eigenvalues not converged
     c_bands:  1 eigenvalues not converged
     c_bands:  1 eigenvalues not converged
     c_bands:  1 eigenvalues not converged
     c_bands:  3 eigenvalues not converged
     c_bands:  1 eigenvalues not converged
     c_bands:  1 eigenvalues not converged
     c_bands:  2 eigenvalues not converged
     ethr =  1.00E-06,  avg # of iterations = 16.8

[...]

     total energy              =    -705.46380978 Ry
     estimated scf accuracy    <          1.2E-12 Ry

[...]

     iteration # 33     ecut=    30.00 Ry     beta= 0.70
     Davidson diagonalization with overlap

     ethr =  1.00E-13,  avg # of iterations =  1.8

     Magnetic moment per site  (integrated on atomic sphere of radius R)
     atom   1 (R=0.111)  charge= 12.5772  magn=  0.0461
     atom   2 (R=0.111)  charge= 12.5773  magn=  0.0462
     atom   3 (R=0.111)  charge=  3.3678  magn= -0.0004
     atom   4 (R=0.111)  charge=  3.3678  magn= -0.0004

     End of self-consistent calculation

 ------ SPIN UP ------------

[...]

 ------ SPIN DOWN ----------

[...]

          k = 0.3663-0.7329-0.5203 (  1125 PWs)   bands (ev):

   -67.4494 -67.4489 -36.2519 -36.2449 -36.2323 -36.2314 -36.2274 -36.2240
    -2.7960  -2.4396   5.7359   6.1056   7.1269   7.2642   7.3708   7.4850
    10.5206  10.8019  11.2373  11.4799  12.3484  13.0848  13.4398  13.8162
    14.1376

     occupation numbers
     1.0000   1.0000   1.0000   1.0000   1.0000   1.0000   1.0000   1.0000
     1.0000   1.0000   1.0000   1.0000   1.0000   1.0000   1.0000   1.0000
     1.0000   1.0000   1.0000   1.0000   0.0000   0.0000   0.0000   0.0000
     0.0000

     the Fermi energy is    11.8934 ev

!    total energy              =    -705.46380978 Ry
     total all-electron energy =     -6231.180617 Ry
     estimated scf accuracy    <          5.5E-13 Ry
     smearing contrib. (-TS)   =      -0.00287447 Ry
     internal energy E=F+TS    =    -705.46093531 Ry

     The total energy is F=E-TS. E is the sum of the following terms:
     one-electron contribution =    -254.85039957 Ry
     hartree contribution      =     150.98334791 Ry
     xc contribution           =     -66.10870809 Ry
     ewald contribution        =    -288.04247622 Ry
     one-center paw contrib.   =    -247.44269933 Ry
      -> PAW hartree energy AE =     184.45294020 Ry
      -> PAW hartree energy PS =    -185.36489782 Ry
      -> PAW xc energy AE      =    -104.70103689 Ry
      -> PAW xc energy PS      =      28.02407622 Ry
      -> total E_H with PAW    =     150.07139029 Ry
      -> total E_XC with PAW   =    -142.78566876 Ry

     total magnetization       =     0.11 Bohr mag/cell
     absolute magnetization    =     0.12 Bohr mag/cell

     convergence has been achieved in  33 iterations

     Forces acting on atoms (cartesian axes, Ry/au):

     atom    1 type  1   force =    -0.00054141    0.00031258    0.00047829
     atom    2 type  2   force =    -0.00054380    0.00031397    0.00047927
     atom    3 type  3   force =     0.00054491   -0.00031460   -0.00047972
     atom    4 type  3   force =     0.00054031   -0.00031195   -0.00047784
     The non-local contrib.  to forces
     atom    1 type  1   force =    -0.00562682    0.00324864    0.00478578
     atom    2 type  2   force =    -0.00561410    0.00324130    0.00478044
     atom    3 type  3   force =    -0.00592843    0.00342278    0.00311512
     atom    4 type  3   force =    -0.00593428    0.00342615    0.00311738
     The ionic contribution  to forces
     atom    1 type  1   force =    -0.11526387    0.06654749    0.07174941
     atom    2 type  2   force =    -0.11563545    0.06675769    0.07189826
     atom    3 type  3   force =     0.11540563   -0.06662511   -0.07180607
     atom    4 type  3   force =     0.11549369   -0.06668006   -0.07184160
     The local contribution  to forces
     atom    1 type  1   force =     0.12082022   -0.06971526   -0.07633853
     atom    2 type  2   force =     0.12114174   -0.06997939   -0.07648148
     atom    3 type  3   force =    -0.10893047    0.06288934    0.06830551
     atom    4 type  3   force =    -0.10902045    0.06294061    0.06834116
     The core correction contribution to forces
     atom    1 type  1   force =    -0.00030281    0.00027417    0.00032325
     atom    2 type  2   force =    -0.00030423    0.00027424    0.00032384
     atom    3 type  3   force =     0.00010773   -0.00006143   -0.00005284
     atom    4 type  3   force =     0.00010786   -0.00006149   -0.00005288
     The Hubbard contrib.    to forces
     atom    1 type  1   force =     0.00000000    0.00000000    0.00000000
     atom    2 type  2   force =     0.00000000    0.00000000    0.00000000
     atom    3 type  3   force =     0.00000000    0.00000000    0.00000000
     atom    4 type  3   force =     0.00000000    0.00000000    0.00000000
     The SCF correction term to forces
     atom    1 type  1   force =    -0.00000011    0.00000007    0.00000005
     atom    2 type  2   force =     0.00000006   -0.00000003   -0.00000011
     atom    3 type  3   force =    -0.00000048    0.00000028    0.00000024
     atom    4 type  3   force =     0.00000049   -0.00000028   -0.00000022

     Total force =     0.001577     Total SCF correction =     0.000001

     Computing stress (Cartesian axis) and pressure

          total   stress  (Ry/bohr**3)                   (kbar)     P=     -500.26
  -0.00337726  -0.00002611  -0.00000530         -496.81       -3.84       -0.78
  -0.00002611  -0.00340741   0.00000306           -3.84     -501.25        0.45
  -0.00000530   0.00000306  -0.00341746           -0.78        0.45     -502.73

     kinetic stress (kbar)  22476.75    -21.36     -1.45
                              -21.36  22452.08      0.84
                               -1.45      0.84  22443.97

     local   stress (kbar)   2239.60    214.99     14.57
                              214.99   2487.85     -8.41
                               14.57     -8.41   2559.72

     nonloc. stress (kbar)  -1572.03     20.30      4.32
                               20.30  -1548.59     -2.49
                                4.32     -2.49  -1538.38

     hartree stress (kbar)  18367.82    -35.88     18.87
                              -35.88  18326.39    -10.90
                               18.87    -10.90  18325.94

     exc-cor stress (kbar)  -3353.05     -1.03     -0.36
                               -1.03  -3354.21      0.20
                               -0.36      0.20  -3354.71

     corecor stress (kbar)  -3831.31     -0.01     -0.45
                               -0.01  -3831.01      0.31
                               -0.45      0.31  -3831.46

     ewald   stress (kbar) -34824.71   -180.93    -36.26
                             -180.93 -35033.64     20.94
                              -36.26     20.94 -35107.79

     hubbard stress (kbar)      0.00      0.00      0.00
                                0.00      0.00      0.00
                                0.00      0.00      0.00

     DFT-D   stress (kbar)      0.00      0.00      0.00
                                0.00      0.00      0.00
                                0.00      0.00      0.00

     XDM     stress (kbar)      0.00      0.00      0.00
                                0.00      0.00      0.00
                                0.00      0.00      0.00

     dft-nl  stress (kbar)      0.00      0.00      0.00
                                0.00      0.00      0.00
                                0.00      0.00      0.00

     TS-vdW  stress (kbar)      0.00      0.00      0.00
                                0.00      0.00      0.00
                                0.00      0.00      0.00

     MDB     stress (kbar)      0.00      0.00      0.00
                                0.00      0.00      0.00
                                0.00      0.00      0.00

     3D-RISM stress (kbar)      0.00      0.00      0.00
                                0.00      0.00      0.00
                                0.00      0.00      0.00

     Writing all to output data dir ./temp/mns.save/ :
     XML data file, charge density, pseudopotentials, collected wavefunctions

     General routines

     Parallel routines

     PAW routines

   This run was terminated on:  23:46:48  17Jan2025

   JOB DONE.