     Program PWSCF v.7.3.1 starts on 22Jan2025 at 21:17:47

     Reading input from vc_relax.in

     Current dimensions of program PWSCF are:
     Max number of different atomic species (ntypx) = 10
     Max number of k-points (npk) =  40000
     Max angular momentum in pseudopotentials (lmaxx) =  4
     file Mn.pbe-spn-kjpaw_psl.0.3.1.UPF: wavefunction(s)  3P 3D renormalized
     file Mn.pbe-spn-kjpaw_psl.0.3.1.UPF: wavefunction(s)  3P 3D renormalized
     file Mn.pbe-spn-kjpaw_psl.0.3.1.UPF: wavefunction(s)  3P 3D renormalized
     file Mn.pbe-spn-kjpaw_psl.0.3.1.UPF: wavefunction(s)  3P 3D renormalized
     file S.pbe-n-kjpaw_psl.1.0.0.UPF: wavefunction(s)  3S 3P renormalized

     R & G space division:  proc/nbgrp/npool/nimage =       6
     Subspace diagonalization in iterative solution of the eigenvalue problem:
     a serial algorithm will be used

     Using Slab Decomposition

     bravais-lattice index     =            0
     lattice parameter (alat)  =      14.7866  a.u.
     unit-cell volume          =    1143.0296 (a.u.)^3
     number of atoms/cell      =            8
     number of atomic types    =            5
     number of electrons       =        84.00
     number of Kohn-Sham states=           50
     kinetic-energy cutoff     =      30.0000  Ry
     charge density cutoff     =     150.0000  Ry
     scf convergence threshold =      1.0E-10
     mixing beta               =       0.7000
     number of iterations used =            8  plain     mixing
     energy convergence thresh.=      1.0E-05
     force convergence thresh. =      1.0E-04
     press convergence thresh. =      5.0E-01
     Exchange-correlation= SLA  PW   PBX  PBC
                           (   1   4   3   4   0   0   0)
     nstep                     =           50

     celldm(1)=  14.786571  celldm(2)=   0.000000  celldm(3)=   0.000000
     celldm(4)=   0.000000  celldm(5)=   0.000000  celldm(6)=   0.000000

     crystal axes: (cart. coord. in units of alat)
               a(1) = (   1.000000   0.000000   0.000000 )
               a(2) = (   0.500000   0.866025   0.000000 )
               a(3) = (   0.250000   0.144338   0.408248 )

     reciprocal axes: (cart. coord. in units 2 pi/alat)
               b(1) = (  1.000000 -0.577350 -0.408248 )
               b(2) = (  0.000000  1.154700 -0.408248 )
               b(3) = (  0.000000  0.000000  2.449490 )

     PseudoPot. # 1 for Mn read from file:
     ./../../../pseudos/Mn.pbe-spn-kjpaw_psl.0.3.1.UPF
     MD5 check sum: ba19e6d7ccbc12830efad05ba8577d9c
     Pseudo is Projector augmented-wave + core cor, Zval = 15.0
     Generated using &quot;atomic&quot; code by A. Dal Corso  v.6.2.2
     Shape of augmentation charge: PSQ
     Using radial grid of 1187 points,  6 beta functions with:
                l(1) =   0
                l(2) =   0
                l(3) =   1
                l(4) =   1
                l(5) =   2
                l(6) =   2
     Q(r) pseudized with 0 coefficients

[...]

     PseudoPot. # 4 for Mn read from file:
     ./../../../pseudos/Mn.pbe-spn-kjpaw_psl.0.3.1.UPF
     MD5 check sum: ba19e6d7ccbc12830efad05ba8577d9c
     Pseudo is Projector augmented-wave + core cor, Zval = 15.0
     Generated using &quot;atomic&quot; code by A. Dal Corso  v.6.2.2
     Shape of augmentation charge: PSQ
     Using radial grid of 1187 points,  6 beta functions with:
                l(1) =   0
                l(2) =   0
                l(3) =   1
                l(4) =   1
                l(5) =   2
                l(6) =   2
     Q(r) pseudized with 0 coefficients

     PseudoPot. # 5 for S  read from file:
     ./../../../pseudos/S.pbe-n-kjpaw_psl.1.0.0.UPF
     MD5 check sum: fb45dfebcf3e72a4e1bd4a866ec2e262
     Pseudo is Projector augmented-wave + core cor, Zval =  6.0
     Generated using &quot;atomic&quot; code by A. Dal Corso  v.6.3
     Shape of augmentation charge: PSQ
     Using radial grid of 1151 points,  6 beta functions with:
                l(1) =   0
                l(2) =   0
                l(3) =   1
                l(4) =   1
                l(5) =   2
                l(6) =   2
     Q(r) pseudized with 0 coefficients

     atomic species   valence    mass     pseudopotential
     Mn1              15.00    54.93800     Mn( 1.00)
     Mn2              15.00    54.93800     Mn( 1.00)
     Mn3              15.00    54.93800     Mn( 1.00)
     Mn4              15.00    54.93800     Mn( 1.00)
     S                 6.00    32.06500     S ( 1.00)

     Starting magnetic structure
     atomic species   magnetization
     Mn1             0.200
     Mn2             0.200
     Mn3             0.200
     Mn4             0.200
     S               0.000

     No symmetry found

                                    s                        frac. trans.

      isym =  1     identity

 cryst.   s( 1) = (     1          0          0      )
                  (     0          1          0      )
                  (     0          0          1      )

 cart.    s( 1) = (  1.0000000  0.0000000  0.0000000 )
                  (  0.0000000  1.0000000  0.0000000 )
                  (  0.0000000  0.0000000  1.0000000 )

   Cartesian axes

     site n.     atom                  positions (alat units)
         1        Mn1    tau(   1) = (   0.7488520   0.4324281   0.3078856  )
         2        Mn2    tau(   2) = (   0.9988442   0.8654359   0.3078921  )
         3        Mn3    tau(   3) = (   1.2488431   0.4324243   0.3078924  )
         4        Mn4    tau(   4) = (   1.4988508   0.8654411   0.3078863  )
         5        S      tau(   5) = (   0.2511523   0.1449243   0.4065456  )
         6        S      tau(   6) = (   0.5011523   0.5779371   0.4065453  )
         7        S      tau(   7) = (   0.7511525   0.1449242   0.4065454  )
         8        S      tau(   8) = (   1.0011524   0.5779370   0.4065455  )

   Crystallographic axes

     site n.     atom                  positions (cryst. coord.)
         1        Mn1    tau(   1) = (  0.3734958  0.3736312  0.7541625  )
         2        Mn2    tau(   2) = (  0.3734882  0.8736229  0.7541784  )
         3        Mn3    tau(   3) = (  0.8734863  0.3736240  0.7541792  )
         4        Mn4    tau(   4) = (  0.8734942  0.8736312  0.7541643  )
         5        S      tau(   5) = (  0.0015087  0.0013726  0.9958292  )
         6        S      tau(   6) = (  0.0015089  0.5013728  0.9958286  )
         7        S      tau(   7) = (  0.5015090  0.0013727  0.9958286  )
         8        S      tau(   8) = (  0.5015088  0.5013726  0.9958291  )

     number of k points=    23  Gaussian smearing, width (Ry)=  0.0100
                       cart. coord. in units 2pi/alat
        k(    1) = (   0.0000000   0.0000000   0.0000000), wk =   0.0222222
        k(    2) = (   0.0000000   0.0000000   0.4898979), wk =   0.0444444
        k(    3) = (   0.0000000   0.0000000   0.9797958), wk =   0.0444444
        k(    4) = (   0.0000000   0.3849002  -0.1360827), wk =   0.0444444
        k(    5) = (   0.0000000   0.3849002   0.3538152), wk =   0.0444444
        k(    6) = (   0.0000000   0.3849002   0.8437131), wk =   0.0444444
        k(    7) = (   0.0000000   0.3849002  -1.1158786), wk =   0.0444444
        k(    8) = (   0.0000000   0.3849002  -0.6259807), wk =   0.0444444
        k(    9) = (   0.3333333   0.1924501  -0.2721655), wk =   0.0444444
        k(   10) = (   0.3333333   0.1924501   0.2177324), wk =   0.0444444
        k(   11) = (   0.3333333   0.1924501   0.7076304), wk =   0.0444444
        k(   12) = (   0.3333333   0.1924501  -1.2519613), wk =   0.0444444
        k(   13) = (   0.3333333   0.1924501  -0.7620634), wk =   0.0444444
        k(   14) = (   0.3333333  -0.5773502   0.0000000), wk =   0.0444444
        k(   15) = (   0.3333333  -0.5773502   0.4898979), wk =   0.0444444
        k(   16) = (   0.3333333  -0.5773502   0.9797959), wk =   0.0444444
        k(   17) = (  -0.3333333   0.1924501   0.1360827), wk =   0.0444444
        k(   18) = (  -0.3333333   0.1924501  -0.3538152), wk =   0.0444444
        k(   19) = (  -0.3333333   0.1924501  -0.8437131), wk =   0.0444444
        k(   20) = (  -0.3333333   0.1924501   1.1158786), wk =   0.0444444
        k(   21) = (  -0.3333333   0.1924501   0.6259807), wk =   0.0444444
        k(   22) = (   0.3333333  -0.5773502  -0.4898979), wk =   0.0444444
        k(   23) = (   0.3333333  -0.5773502  -0.9797958), wk =   0.0444444

                       cryst. coord.
        k(    1) = (   0.0000000   0.0000000   0.0000000), wk =   0.0222222
        k(    2) = (   0.0000000   0.0000000   0.2000000), wk =   0.0444444
        k(    3) = (   0.0000000   0.0000000   0.4000000), wk =   0.0444444
        k(    4) = (   0.0000000   0.3333333   0.0000000), wk =   0.0444444
        k(    5) = (   0.0000000   0.3333333   0.2000000), wk =   0.0444444
        k(    6) = (   0.0000000   0.3333333   0.4000000), wk =   0.0444444
        k(    7) = (   0.0000000   0.3333333  -0.4000000), wk =   0.0444444
        k(    8) = (   0.0000000   0.3333333  -0.2000000), wk =   0.0444444
        k(    9) = (   0.3333333   0.3333333   0.0000000), wk =   0.0444444
        k(   10) = (   0.3333333   0.3333333   0.2000000), wk =   0.0444444
        k(   11) = (   0.3333333   0.3333333   0.4000000), wk =   0.0444444
        k(   12) = (   0.3333333   0.3333333  -0.4000000), wk =   0.0444444
        k(   13) = (   0.3333333   0.3333333  -0.2000000), wk =   0.0444444
        k(   14) = (   0.3333333  -0.3333333   0.0000000), wk =   0.0444444
        k(   15) = (   0.3333333  -0.3333333   0.2000000), wk =   0.0444444
        k(   16) = (   0.3333333  -0.3333333   0.4000000), wk =   0.0444444
        k(   17) = (  -0.3333333   0.0000000  -0.0000000), wk =   0.0444444
        k(   18) = (  -0.3333333   0.0000000  -0.2000000), wk =   0.0444444
        k(   19) = (  -0.3333333   0.0000000  -0.4000000), wk =   0.0444444
        k(   20) = (  -0.3333333   0.0000000   0.4000000), wk =   0.0444444
        k(   21) = (  -0.3333333   0.0000000   0.2000000), wk =   0.0444444
        k(   22) = (   0.3333333  -0.3333333  -0.2000000), wk =   0.0444444
        k(   23) = (   0.3333333  -0.3333333  -0.4000000), wk =   0.0444444

     Check: negative core charge=   -0.000237
     Generating pointlists ...
     new r_m :   0.1253 (alat units)  1.8527 (a.u.) for type    1
     new r_m :   0.1253 (alat units)  1.8527 (a.u.) for type    2
     new r_m :   0.1253 (alat units)  1.8526 (a.u.) for type    3
     new r_m :   0.1253 (alat units)  1.8527 (a.u.) for type    4
     new r_m :   0.1253 (alat units)  1.8526 (a.u.) for type    5

     Initial potential from superposition of free atoms

     starting charge      83.9979, renormalised to      84.0000
     Starting wfcs are   56 randomized atomic wfcs
     Checking if some PAW data can be deallocated...

     Self-consistent Calculation

     iteration #  1     ecut=    30.00 Ry     beta= 0.70
     Davidson diagonalization with overlap

     ethr =  1.00E-02,  avg # of iterations =  2.2

     Threshold (ethr) on eigenvalues was too large:
     Diagonalizing with lowered threshold

     Davidson diagonalization with overlap

[...]

[...]
Mn3              0.8734861101        0.3736216224        0.7541838540
Mn4              0.8734962221        0.8736316509        0.7541640310
S                0.0015082088        0.0013734359        0.9958267642
S                0.0015082842        0.5013736262        0.9958261977
S                0.5015083101        0.0013735215        0.9958263261
S                0.5015081740        0.5013735204        0.9958267623

     Writing config-only to output data dir ./temp/mns.save/ :
     XML data file
     NEW-OLD atomic charge density approx. for the potential

[...]

     Total force =     0.031271     Total SCF correction =     0.000022

[...]

     Energy error            =      3.5E-01 Ry
     Gradient error          =      9.4E-03 Ry/Bohr
     Cell gradient error     =      5.4E+01 kbar

[...]

     enthalpy           old  =   -1410.9718557640 Ry
     enthalpy           new  =   -1411.3262267198 Ry

     CASE: enthalpy          _new < enthalpy          _old

[...]

     Check: negative core charge=   -0.000087
     Generating pointlists ...

[...]

     WARNING: bfgs curvature condition failed, Theta= 0.018
     new trust radius        =       0.0697783720 bohr
WARNING! With ibrav=0, cell_dofree='ibrav' has no effect.
     new conv_thr            =            1.0E-10 Ry

[...]

     Check: negative core charge=   -0.000111
     Generating pointlists ...
     new r_m :   0.1125 (alat units)  1.6631 (a.u.) for type    1
     new r_m :   0.1125 (alat units)  1.6632 (a.u.) for type    2
     new r_m :   0.1125 (alat units)  1.6631 (a.u.) for type    3
     new r_m :   0.1125 (alat units)  1.6633 (a.u.) for type    4
     new r_m :   0.1125 (alat units)  1.6631 (a.u.) for type    5

[...]

     Total force =     0.006273     Total SCF correction =     0.000617

[...]

     CASE: enthalpy          _new > enthalpy          _old

[...]

     new trust radius        =       0.0000226097 bohr

     trust_radius < trust_radius_min

     resetting bfgs history

WARNING! With ibrav=0, cell_dofree='ibrav' has no effect.
     new conv_thr            =            5.4E-12 Ry

[...]

     CASE: enthalpy          _new < enthalpy          _old

     new trust radius        =       0.0018947326 bohr
WARNING! With ibrav=0, cell_dofree='ibrav' has no effect.
     new conv_thr            =            1.0E-12 Ry

[...]

WARNING! With ibrav=0, cell_dofree='ibrav' has no effect.
     new conv_thr            =            1.0E-12 Ry

[...]

     Energy error            =      5.2E-05 Ry
     Gradient error          =      1.6E-03 Ry/Bohr
     Cell gradient error     =      6.0E-01 kbar

     number of scf cycles    =  18
     number of bfgs steps    =  14

     enthalpy           old  =   -1411.3925791480 Ry
     enthalpy           new  =   -1411.3925272013 Ry

     CASE: enthalpy          _new > enthalpy          _old

     new trust radius        =       0.0000540872 bohr

     trust_radius < trust_radius_min

     resetting bfgs history

     Message from routine bfgs:
     history already reset at previous step: stopping
WARNING! With ibrav=0, cell_dofree='ibrav' has no effect.
     new conv_thr            =            1.0E-12 Ry

     new unit-cell volume =    807.44502 a.u.^3 (   119.65101 Ang^3 )
     density =      4.82978 g/cm^3

[...]

ATOMIC_POSITIONS (crystal)
Mn1              0.3738705690        0.3736539086        0.7544165629
Mn2              0.3735986624        0.8738907477        0.7545381151
Mn3              0.8737440531        0.3734500989        0.7548422765
Mn4              0.8738532382        0.8740749905        0.7540147136
S                0.0011147046        0.0008205933        0.9960194780
S                0.0014065710        0.5016508845        0.9950135248
S                0.5015219077        0.0012788784        0.9952629761
S                0.5008903400        0.5011798631        0.9958923530

     Writing config-only to output data dir ./temp/mns.save/ :
     XML data file
     NEW-OLD atomic charge density approx. for the potential

     Check: negative core charge=   -0.000123
     Generating pointlists ...

     Self-consistent Calculation

[...]

     c_bands:  1 eigenvalues not converged
     c_bands:  1 eigenvalues not converged
     c_bands:  1 eigenvalues not converged
     ethr =  3.46E-10,  avg # of iterations = 16.2

[...]

     total energy              =   -1411.39251146 Ry
     estimated scf accuracy    <       0.00000265 Ry

[...]

     iteration #100     ecut=    30.00 Ry     beta= 0.70
     Davidson diagonalization with overlap

     ethr =  3.00E-10,  avg # of iterations = 13.4

     Magnetic moment per site  (integrated on atomic sphere of radius R)
     atom   1 (R=0.112)  charge= 12.6250  magn=  0.1640
     atom   2 (R=0.112)  charge= 12.6235  magn=  0.2605
     atom   3 (R=0.112)  charge= 12.6220  magn=  0.3234
     atom   4 (R=0.112)  charge= 12.6264  magn=  0.1190
     atom   5 (R=0.112)  charge=  3.4364  magn= -0.0021
     atom   6 (R=0.112)  charge=  3.4342  magn= -0.0027
     atom   7 (R=0.112)  charge=  3.4352  magn= -0.0013
     atom   8 (R=0.112)  charge=  3.4351  magn= -0.0032

     End of self-consistent calculation

 ------ SPIN UP ------------

[...]

 ------ SPIN DOWN ----------

[...]

          k =-0.3694 0.2166 0.7080 (  3178 PWs)   bands (ev):

[...]

          k = 0.3673-0.6477-1.1100 (  3173 PWs)   bands (ev):

   -66.9871 -66.9672 -66.9212 -66.8944 -35.8284 -35.8161 -35.8080 -35.8035
   -35.7963 -35.7835 -35.7628 -35.7520 -35.7357 -35.7347 -35.7262 -35.7092
    -2.4222  -1.9782  -1.9209  -1.8924   5.7301   5.7540   5.7949   5.9259
     6.4651   6.6337   6.7520   7.1824   7.4567   7.5608   7.5754   7.6438
    10.3819  10.5619  10.6085  10.6207  11.1119  11.1326  11.1859  11.6110
    11.8553  11.8946  12.0009  12.4840  12.6788  12.7095  12.7136  13.3615
    13.4647  13.5563

     occupation numbers
     1.0000   1.0000   1.0000   1.0000   1.0000   1.0000   1.0000   1.0000
     1.0000   1.0000   1.0000   1.0000   1.0000   1.0000   1.0000   1.0000
     1.0000   1.0000   1.0000   1.0000   1.0000   1.0000   1.0000   1.0000
     1.0000   1.0000   1.0000   1.0000   1.0000   1.0000   1.0000   1.0000
     1.0000   1.0000   1.0000   1.0000   1.0000   1.0000   1.0000   0.9956
     0.5313   0.3706   0.0757   0.0000   0.0000   0.0000   0.0000   0.0000
     0.0000   0.0000

     the Fermi energy is    11.8629 ev

!    total energy              =   -1411.39257888 Ry
     total all-electron energy =    -12462.826193 Ry
     estimated scf accuracy    <       0.00000154 Ry
     smearing contrib. (-TS)   =      -0.00542941 Ry
     internal energy E=F+TS    =   -1411.38714947 Ry

     The total energy is F=E-TS. E is the sum of the following terms:
     one-electron contribution =    -511.24452226 Ry
     hartree contribution      =     303.81690414 Ry
     xc contribution           =    -132.52490847 Ry
     ewald contribution        =    -576.06546520 Ry
     one-center paw contrib.   =    -495.36915768 Ry
      -> PAW hartree energy AE =     344.30187709 Ry
      -> PAW hartree energy PS =    -346.39287496 Ry
      -> PAW xc energy AE      =    -208.00418300 Ry
      -> PAW xc energy PS      =      54.67530056 Ry
      -> total E_H with PAW    =     301.72590626 Ry
      -> total E_XC with PAW   =    -285.85379091 Ry

     total magnetization       =     1.01 Bohr mag/cell
     absolute magnetization    =     1.09 Bohr mag/cell

     convergence has been achieved in 100 iterations

     Forces acting on atoms (cartesian axes, Ry/au):

     atom    1 type  1   force =    -0.00039087    0.00006220    0.00020069
     atom    2 type  2   force =    -0.00003463   -0.00002835    0.00012626
     atom    3 type  3   force =     0.00018817    0.00011944   -0.00006373
     atom    4 type  4   force =    -0.00012679   -0.00036488    0.00016877
     atom    5 type  5   force =     0.00035465    0.00030125   -0.00036469
     atom    6 type  5   force =    -0.00024845   -0.00015808    0.00019611
     atom    7 type  5   force =    -0.00015662   -0.00007360    0.00010121
     atom    8 type  5   force =     0.00041454    0.00014201   -0.00036462
     The non-local contrib.  to forces
     atom    1 type  1   force =    -0.00244992   -0.00169827    0.00785854
     atom    2 type  2   force =    -0.00377326   -0.00075835    0.00831222
     atom    3 type  3   force =    -0.00278712   -0.00304130    0.00847733
     atom    4 type  4   force =    -0.00142196   -0.00054511    0.00685600
     atom    5 type  5   force =    -0.00155202   -0.00025109    0.00480623
     atom    6 type  5   force =    -0.00396507   -0.00273028    0.00701485
     atom    7 type  5   force =    -0.00373788   -0.00172098    0.00657134
     atom    8 type  5   force =    -0.00135446   -0.00143058    0.00503404
     The ionic contribution  to forces
     atom    1 type  1   force =    -0.07849004   -0.01733305    0.15007504
     atom    2 type  2   force =    -0.01670164   -0.06424878    0.13137068
     atom    3 type  3   force =    -0.03840399    0.03267964    0.11002395
     atom    4 type  4   force =    -0.10124067   -0.08620183    0.18840477
     atom    5 type  5   force =     0.07581527    0.03654004   -0.15712429
     atom    6 type  5   force =     0.03086117    0.03696547   -0.12813262
     atom    7 type  5   force =     0.04390087    0.00610652   -0.12516783
     atom    8 type  5   force =     0.08425903    0.05549201   -0.16944971
     The local contribution  to forces
     atom    1 type  1   force =     0.08163354    0.01921958   -0.15870766
     atom    2 type  2   force =     0.02096625    0.06449115   -0.14000712
     atom    3 type  3   force =     0.04079819   -0.02907143   -0.11866603
     atom    4 type  4   force =     0.10249457    0.08686714   -0.19550545
     atom    5 type  5   force =    -0.07350596   -0.03519198    0.15149041
     atom    6 type  5   force =    -0.02785896   -0.03512424    0.12205982
     atom    7 type  5   force =    -0.04081859   -0.00443084    0.11904107
     atom    8 type  5   force =    -0.08187863   -0.05412650    0.16381325
     The core correction contribution to forces
     atom    1 type  1   force =    -0.00025800   -0.00018427    0.00046124
     atom    2 type  2   force =    -0.00018177   -0.00013645    0.00046455
     atom    3 type  3   force =    -0.00024312   -0.00010748    0.00047863
     atom    4 type  4   force =    -0.00030527   -0.00013896    0.00048363
     atom    5 type  5   force =     0.00001072   -0.00000543   -0.00006685
     atom    6 type  5   force =     0.00010186    0.00006124   -0.00014107
     atom    7 type  5   force =     0.00009022    0.00004977   -0.00013237
     atom    8 type  5   force =     0.00000388    0.00001422   -0.00006661
     The Hubbard contrib.    to forces
     atom    1 type  1   force =     0.00000000    0.00000000    0.00000000
     atom    2 type  2   force =     0.00000000    0.00000000    0.00000000
     atom    3 type  3   force =     0.00000000    0.00000000    0.00000000
     atom    4 type  4   force =     0.00000000    0.00000000    0.00000000
     atom    5 type  5   force =     0.00000000    0.00000000    0.00000000
     atom    6 type  5   force =     0.00000000    0.00000000    0.00000000
     atom    7 type  5   force =     0.00000000    0.00000000    0.00000000
     atom    8 type  5   force =     0.00000000    0.00000000    0.00000000
     The SCF correction term to forces
     atom    1 type  1   force =    -0.00082330    0.00006049    0.00050607
     atom    2 type  2   force =    -0.00034105    0.00062637   -0.00002152
     atom    3 type  3   force =     0.00082737   -0.00033771   -0.00038506
     atom    4 type  4   force =     0.00034970   -0.00034383   -0.00007763
     atom    5 type  5   force =    -0.00041019   -0.00078801    0.00052236
     atom    6 type  5   force =     0.00061571    0.00067203   -0.00061232
     atom    7 type  5   force =     0.00041192   -0.00007578   -0.00021845
     atom    8 type  5   force =    -0.00061212    0.00019515    0.00029697

     Total force =     0.001134     Total SCF correction =     0.002373
     SCF correction compared to forces is large: reduce conv_thr to get better values

     Computing stress (Cartesian axis) and pressure

          total   stress  (Ry/bohr**3)                   (kbar)     P=       -0.77
  -0.00000430  -0.00000011  -0.00000208           -0.63       -0.02       -0.31
  -0.00000011  -0.00000419  -0.00000120           -0.02       -0.62       -0.18
  -0.00000208  -0.00000120  -0.00000724           -0.31       -0.18       -1.06

     kinetic stress (kbar)  22216.76     -1.23    -11.08
                               -1.23  22218.21     -6.41
                              -11.08     -6.41  22183.90

     local   stress (kbar)   2490.57    -24.75    164.85
                              -24.75   2519.13     95.18
                              164.85     95.18   2840.97

     nonloc. stress (kbar)  -1069.84      3.38     12.97
                                3.38  -1073.74      7.49
                               12.97      7.49  -1027.45

     hartree stress (kbar)  18472.24     25.10    -39.63
                               25.10  18443.28    -22.89
                              -39.63    -22.89  18435.62

     exc-cor stress (kbar)  -3359.01     -0.21     -0.55
                               -0.21  -3358.77     -0.32
                               -0.55     -0.32  -3360.95

     corecor stress (kbar)  -3874.08     -0.02      0.02
                               -0.02  -3874.05      0.01
                                0.02      0.01  -3874.10

     ewald   stress (kbar) -34877.27     -2.29   -126.89
                               -2.29 -34874.67    -73.24
                             -126.89    -73.24 -35199.05

     hubbard stress (kbar)      0.00      0.00      0.00
                                0.00      0.00      0.00
                                0.00      0.00      0.00

     DFT-D   stress (kbar)      0.00      0.00      0.00
                                0.00      0.00      0.00
                                0.00      0.00      0.00

     XDM     stress (kbar)      0.00      0.00      0.00
                                0.00      0.00      0.00
                                0.00      0.00      0.00

     dft-nl  stress (kbar)      0.00      0.00      0.00
                                0.00      0.00      0.00
                                0.00      0.00      0.00

     TS-vdW  stress (kbar)      0.00      0.00      0.00
                                0.00      0.00      0.00
                                0.00      0.00      0.00

     MDB     stress (kbar)      0.00      0.00      0.00
                                0.00      0.00      0.00
                                0.00      0.00      0.00

     3D-RISM stress (kbar)      0.00      0.00      0.00
                                0.00      0.00      0.00
                                0.00      0.00      0.00

     Message from routine bfgs:
     history already reset at previous step: exiting
     Energy error            =      2.6E-07 Ry
     Gradient error          =      4.1E-04 Ry/Bohr
     Cell gradient error     =      1.1E+00 kbar
WARNING! With ibrav=0, cell_dofree='ibrav' has no effect.

     bfgs failed after  19 scf cycles and  14 bfgs steps, convergence not achieved
     (criteria: energy <  1.0E-05 Ry, force <  1.0E-04 Ry/Bohr, cell <  5.0E-01 kbar)

     End of BFGS Geometry Optimization

     Final enthalpy           =   -1411.3925788844 Ry

     File ./temp/mns.bfgs deleted, as requested
Begin final coordinates
     new unit-cell volume =    807.44502 a.u.^3 (   119.65101 Ang^3 )
     density =      4.82978 g/cm^3

CELL_PARAMETERS (angstrom)
   6.996687556  -0.005512825  -0.031339371
   3.493570849   6.062037898  -0.031332428
   1.735620245   1.002063069   2.809364451

ATOMIC_POSITIONS (crystal)
Mn1              0.3738705690        0.3736539086        0.7544165629
Mn2              0.3735986624        0.8738907477        0.7545381151
Mn3              0.8737440531        0.3734500989        0.7548422765
Mn4              0.8738532382        0.8740749905        0.7540147136
S                0.0011147046        0.0008205933        0.9960194780
S                0.0014065710        0.5016508845        0.9950135248
S                0.5015219077        0.0012788784        0.9952629761
S                0.5008903400        0.5011798631        0.9958923530
End final coordinates

     Writing config-only to output data dir ./temp/mns.save/ :
     XML data file

     Writing all to output data dir ./temp/mns.save/ :
     XML data file, charge density, pseudopotentials, collected wavefunctions

     General routines

     Parallel routines

     PAW routines

   This run was terminated on:   4:56:59  23Jan2025

   JOB DONE.