     Program PWSCF v.7.3.1 starts on 23Dec2024 at  6:59:16

     Reading input from vc_relax_AFM.in

     Current dimensions of program PWSCF are:
     Max number of different atomic species (ntypx) = 10
     Max number of k-points (npk) =  40000
     Max angular momentum in pseudopotentials (lmaxx) =  4
     file Fe.pbesol-spn-kjpaw_psl.1.0.0.UPF: wavefunction(s)  3P 3D renormalized
     file Fe.pbesol-spn-kjpaw_psl.1.0.0.UPF: wavefunction(s)  3P 3D renormalized
     Found identity + ( -0.5000 -0.5000 -0.5000) symmetry
     This is a supercell, fractional translations are disabled

     R & G space division:  proc/nbgrp/npool/nimage =       2
     Subspace diagonalization in iterative solution of the eigenvalue problem:
     a serial algorithm will be used

     Using Slab Decomposition

     bravais-lattice index     =            1
     lattice parameter (alat)  =       5.4104  a.u.
     unit-cell volume          =     158.3714 (a.u.)^3
     number of atoms/cell      =            2
     number of atomic types    =            2
     number of electrons       =        32.00
     number of Kohn-Sham states=           20
     kinetic-energy cutoff     =      50.0000  Ry
     charge density cutoff     =     400.0000  Ry
     scf convergence threshold =      1.0E-08
     mixing beta               =       0.7000
     number of iterations used =            8  plain     mixing
     energy convergence thresh.=      1.0E-05
     force convergence thresh. =      1.0E-04
     press convergence thresh. =      5.0E-01
     Exchange-correlation= SLA  PW   PSX  PSC
                           (   1   4  10   8   0   0   0)
     nstep                     =           50

     celldm(1)=   5.410353  celldm(2)=   0.000000  celldm(3)=   0.000000
     celldm(4)=   0.000000  celldm(5)=   0.000000  celldm(6)=   0.000000

     crystal axes: (cart. coord. in units of alat)
               a(1) = (   1.000000   0.000000   0.000000 )
               a(2) = (   0.000000   1.000000   0.000000 )
               a(3) = (   0.000000   0.000000   1.000000 )

     reciprocal axes: (cart. coord. in units 2 pi/alat)
               b(1) = (  1.000000  0.000000  0.000000 )
               b(2) = (  0.000000  1.000000  0.000000 )
               b(3) = (  0.000000  0.000000  1.000000 )

     PseudoPot. # 1 for Fe read from file:
     ./../../pseudos/Fe.pbesol-spn-kjpaw_psl.1.0.0.UPF
     MD5 check sum: e30d5f36a6f0cb983ee41abee56170da
     Pseudo is Projector augmented-wave + core cor, Zval = 16.0
     Generated using &quot;atomic&quot; code by A. Dal Corso  v.6.3
     Shape of augmentation charge: PSQ
     Using radial grid of 1191 points,  6 beta functions with:
                l(1) =   0
                l(2) =   0
                l(3) =   1
                l(4) =   1
                l(5) =   2
                l(6) =   2
     Q(r) pseudized with 0 coefficients

[...]

     atomic species   valence    mass     pseudopotential
     Fe1              16.00    55.84500     Fe( 1.00)
     Fe2              16.00    55.84500     Fe( 1.00)

     Starting magnetic structure
     atomic species   magnetization
     Fe1             0.300
     Fe2            -0.300

     48 Sym. Ops., with inversion, found

   Cartesian axes

     site n.     atom                  positions (alat units)
         1        Fe1    tau(   1) = (   0.0000000   0.0000000   0.0000000  )
         2        Fe1    tau(   2) = (   0.5000000   0.5000000   0.5000000  )

     number of k points=    56  Gaussian smearing, width (Ry)=  0.0200
                       cart. coord. in units 2pi/alat
        k(    1) = (   0.0000000   0.0000000   0.0000000), wk =   0.0007513
        k(    2) = (   0.0000000   0.0000000   0.0909091), wk =   0.0045079
        k(    3) = (   0.0000000   0.0000000   0.1818182), wk =   0.0045079
        k(    4) = (   0.0000000   0.0000000   0.2727273), wk =   0.0045079
        k(    5) = (   0.0000000   0.0000000   0.3636364), wk =   0.0045079
        k(    6) = (   0.0000000   0.0000000   0.4545455), wk =   0.0045079
        k(    7) = (   0.0000000   0.0909091   0.0909091), wk =   0.0090158
        k(    8) = (   0.0000000   0.0909091   0.1818182), wk =   0.0180316
        k(    9) = (   0.0000000   0.0909091   0.2727273), wk =   0.0180316
        k(   10) = (   0.0000000   0.0909091   0.3636364), wk =   0.0180316
        k(   11) = (   0.0000000   0.0909091   0.4545455), wk =   0.0180316
        k(   12) = (   0.0000000   0.1818182   0.1818182), wk =   0.0090158
        k(   13) = (   0.0000000   0.1818182   0.2727273), wk =   0.0180316
        k(   14) = (   0.0000000   0.1818182   0.3636364), wk =   0.0180316
        k(   15) = (   0.0000000   0.1818182   0.4545455), wk =   0.0180316
        k(   16) = (   0.0000000   0.2727273   0.2727273), wk =   0.0090158
        k(   17) = (   0.0000000   0.2727273   0.3636364), wk =   0.0180316
        k(   18) = (   0.0000000   0.2727273   0.4545455), wk =   0.0180316
        k(   19) = (   0.0000000   0.3636364   0.3636364), wk =   0.0090158
        k(   20) = (   0.0000000   0.3636364   0.4545455), wk =   0.0180316
        k(   21) = (   0.0000000   0.4545455   0.4545455), wk =   0.0090158
        k(   22) = (   0.0909091   0.0909091   0.0909091), wk =   0.0060105
        k(   23) = (   0.0909091   0.0909091   0.1818182), wk =   0.0180316
        k(   24) = (   0.0909091   0.0909091   0.2727273), wk =   0.0180316
        k(   25) = (   0.0909091   0.0909091   0.3636364), wk =   0.0180316
        k(   26) = (   0.0909091   0.0909091   0.4545455), wk =   0.0180316
        k(   27) = (   0.0909091   0.1818182   0.1818182), wk =   0.0180316
        k(   28) = (   0.0909091   0.1818182   0.2727273), wk =   0.0360631
        k(   29) = (   0.0909091   0.1818182   0.3636364), wk =   0.0360631
        k(   30) = (   0.0909091   0.1818182   0.4545455), wk =   0.0360631
        k(   31) = (   0.0909091   0.2727273   0.2727273), wk =   0.0180316
        k(   32) = (   0.0909091   0.2727273   0.3636364), wk =   0.0360631
        k(   33) = (   0.0909091   0.2727273   0.4545455), wk =   0.0360631
        k(   34) = (   0.0909091   0.3636364   0.3636364), wk =   0.0180316
        k(   35) = (   0.0909091   0.3636364   0.4545455), wk =   0.0360631
        k(   36) = (   0.0909091   0.4545455   0.4545455), wk =   0.0180316
        k(   37) = (   0.1818182   0.1818182   0.1818182), wk =   0.0060105
        k(   38) = (   0.1818182   0.1818182   0.2727273), wk =   0.0180316
        k(   39) = (   0.1818182   0.1818182   0.3636364), wk =   0.0180316
        k(   40) = (   0.1818182   0.1818182   0.4545455), wk =   0.0180316
        k(   41) = (   0.1818182   0.2727273   0.2727273), wk =   0.0180316
        k(   42) = (   0.1818182   0.2727273   0.3636364), wk =   0.0360631
        k(   43) = (   0.1818182   0.2727273   0.4545455), wk =   0.0360631
        k(   44) = (   0.1818182   0.3636364   0.3636364), wk =   0.0180316
        k(   45) = (   0.1818182   0.3636364   0.4545455), wk =   0.0360631
        k(   46) = (   0.1818182   0.4545455   0.4545455), wk =   0.0180316
        k(   47) = (   0.2727273   0.2727273   0.2727273), wk =   0.0060105
        k(   48) = (   0.2727273   0.2727273   0.3636364), wk =   0.0180316
        k(   49) = (   0.2727273   0.2727273   0.4545455), wk =   0.0180316
        k(   50) = (   0.2727273   0.3636364   0.3636364), wk =   0.0180316
        k(   51) = (   0.2727273   0.3636364   0.4545455), wk =   0.0360631
        k(   52) = (   0.2727273   0.4545455   0.4545455), wk =   0.0180316
        k(   53) = (   0.3636364   0.3636364   0.3636364), wk =   0.0060105
        k(   54) = (   0.3636364   0.3636364   0.4545455), wk =   0.0180316
        k(   55) = (   0.3636364   0.4545455   0.4545455), wk =   0.0180316
        k(   56) = (   0.4545455   0.4545455   0.4545455), wk =   0.0060105

     Check: negative core charge=   -0.000006
     Generating pointlists ...
     new r_m :   0.3572 (alat units)  1.9328 (a.u.) for type    1
     new r_m :   0.4125 (alat units)  2.2318 (a.u.) for type    2

     Initial potential from superposition of free atoms

     starting charge      31.9992, renormalised to      32.0000
     Starting wfcs are   20 randomized atomic wfcs
     Checking if some PAW data can be deallocated...

     Self-consistent Calculation

     iteration #  1     ecut=    50.00 Ry     beta= 0.70
     Davidson diagonalization with overlap
     ethr =  1.00E-02,  avg # of iterations =  3.4

     Threshold (ethr) on eigenvalues was too large:
     Diagonalizing with lowered threshold

     Davidson diagonalization with overlap
     ethr =  6.12E-04,  avg # of iterations =  1.6

     negative rho (up, down):  0.000E+00 2.441E-04

     total energy              =    -653.72809111 Ry
     estimated scf accuracy    <       0.20435193 Ry

     total magnetization       =     5.86 Bohr mag/cell
     absolute magnetization    =     5.91 Bohr mag/cell

[...]

     Magnetic moment per site  (integrated on atomic sphere of radius R)
     atom   1 (R=0.357)  charge= 14.4155  magn=  2.2655
     atom   2 (R=0.357)  charge= 14.4155  magn=  2.2658

     End of self-consistent calculation

     Number of k-points >= 100: set verbosity='high' to print the bands.

     the Fermi energy is    17.4249 ev

!    total energy              =    -653.78499973 Ry
     total all-electron energy =     -5086.436418 Ry
     estimated scf accuracy    <          1.3E-09 Ry
     smearing contrib. (-TS)   =      -0.00539701 Ry
     internal energy E=F+TS    =    -653.77960272 Ry

     The total energy is F=E-TS. E is the sum of the following terms:
     one-electron contribution =    -224.89124547 Ry
     hartree contribution      =     131.74884201 Ry
     xc contribution           =     -54.81406499 Ry
     ewald contribution        =    -344.39297617 Ry
     one-center paw contrib.   =    -161.43015810 Ry

[...]

     convergence has been achieved in  12 iterations

[...]

     Forces acting on atoms (cartesian axes, Ry/au):

     atom    1 type  1   force =     0.00000000    0.00000000    0.00000000
     atom    2 type  1   force =     0.00000000    0.00000000    0.00000000

     Total force =     0.000000     Total SCF correction =     0.000000

     Computing stress (Cartesian axis) and pressure

     negative rho (up, down):  0.000E+00 2.981E-04
          total   stress  (Ry/bohr**3)                   (kbar)     P=     -370.58
  -0.00251915   0.00000000   0.00000000         -370.58        0.00        0.00
   0.00000000  -0.00251915   0.00000000            0.00     -370.58        0.00
   0.00000000   0.00000000  -0.00251915            0.00        0.00     -370.58

     BFGS Geometry Optimization
     Energy error            =      0.0E+00 Ry
     Gradient error          =      0.0E+00 Ry/Bohr
     Cell gradient error     =      3.7E+02 kbar

     number of scf cycles    =   1
     number of bfgs steps    =   0

     enthalpy           new  =    -653.7849997348 Ry

     new trust radius        =       0.1585119357 bohr
ibrav =      1
 celldm(1) =      5.06961596
Input lattice vectors:
     0.93702132     0.00000000     0.00000000
     0.00000000     0.93702132     0.00000000
     0.00000000     0.00000000     0.93702132
New lattice vectors in INITIAL alat:
     0.93702132     0.00000000     0.00000000
     0.00000000     0.93702132     0.00000000
     0.00000000     0.00000000     0.93702132
New lattice vectors in NEW alat (for information only):
     1.00000000     0.00000000     0.00000000
     0.00000000     1.00000000     0.00000000
     0.00000000     0.00000000     1.00000000
Discrepancy in bohr =     0.000000    0.000000    0.000000
     new conv_thr            =       0.0000000100 Ry

     new unit-cell volume =    130.29423 a.u.^3 (    19.30761 Ang^3 )
     density =      9.60583 g/cm^3

CELL_PARAMETERS (alat=  5.41035287)
   0.937021315   0.000000000   0.000000000
   0.000000000   0.937021315   0.000000000
   0.000000000   0.000000000   0.937021315

ATOMIC_POSITIONS (crystal)
Fe1              0.0000000000        0.0000000000        0.0000000000
Fe1              0.5000000000        0.5000000000        0.5000000000

     Writing config-only to output data dir ./temp/fe-afm.save/ :
     XML data file
     NEW-OLD atomic charge density approx. for the potential

     Check: negative core charge=   -0.000004

     negative rho (up, down):  0.000E+00 2.449E-04
     Generating pointlists ...
     new r_m :   0.3347 (alat units)  1.8110 (a.u.) for type    1
     new r_m :   0.3865 (alat units)  2.0912 (a.u.) for type    2

[...]

     Energy error            =      8.5E-03 Ry
     Gradient error          =      0.0E+00 Ry/Bohr
     Cell gradient error     =      3.2E+02 kbar

[...]

     enthalpy           old  =    -653.7849997348 Ry
     enthalpy           new  =    -653.7935194524 Ry

     CASE: enthalpy          _new < enthalpy          _old

[...]

     negative rho (up, down):  0.000E+00 9.776E-05
     Generating pointlists ...

[...]

     Energy error            =      1.2E-02 Ry
     Gradient error          =      0.0E+00 Ry/Bohr
     Cell gradient error     =      5.9E+00 kbar

     number of scf cycles    =   3
     number of bfgs steps    =   2

     enthalpy           old  =    -653.7935194524 Ry
     enthalpy           new  =    -653.8057558866 Ry

     CASE: enthalpy          _new < enthalpy          _old

     new trust radius        =       0.0013317144 bohr
ibrav =      1
 celldm(1) =      5.21875340
Input lattice vectors:
     0.96458651     0.00000000     0.00000000
     0.00000000     0.96458651     0.00000000
     0.00000000     0.00000000     0.96458651
New lattice vectors in INITIAL alat:
     0.96458651     0.00000000     0.00000000
     0.00000000     0.96458651     0.00000000
     0.00000000     0.00000000     0.96458651
New lattice vectors in NEW alat (for information only):
     1.00000000     0.00000000     0.00000000
     0.00000000     1.00000000     0.00000000
     0.00000000     0.00000000     1.00000000
Discrepancy in bohr =     0.000000    0.000000    0.000000
     new conv_thr            =            1.0E-10 Ry

     new unit-cell volume =    142.13477 a.u.^3 (    21.06220 Ang^3 )
     density =      8.80561 g/cm^3

[...]

ATOMIC_POSITIONS (crystal)
Fe1              0.0000000000        0.0000000000        0.0000000000
Fe1              0.5000000000        0.5000000000        0.5000000000

     Writing config-only to output data dir ./temp/fe-afm.save/ :
     XML data file
     NEW-OLD atomic charge density approx. for the potential

     Check: negative core charge=   -0.000006

     negative rho (up, down):  0.000E+00 1.731E-04
     Generating pointlists ...

[...]

     Threshold (ethr) on eigenvalues was too large:
     Diagonalizing with lowered threshold

     Davidson diagonalization with overlap
     ethr =  4.29E-09,  avg # of iterations =  2.5

[...]

     Energy error            =      4.7E-06 Ry
     Gradient error          =      0.0E+00 Ry/Bohr
     Cell gradient error     =      1.2E-01 kbar
ibrav =      1
 celldm(1) =      5.21875340
Input lattice vectors:
     0.96458651     0.00000000     0.00000000
     0.00000000     0.96458651     0.00000000
     0.00000000     0.00000000     0.96458651
New lattice vectors in INITIAL alat:
     0.96458651     0.00000000     0.00000000
     0.00000000     0.96458651     0.00000000
     0.00000000     0.00000000     0.96458651
New lattice vectors in NEW alat (for information only):
     1.00000000     0.00000000     0.00000000
     0.00000000     1.00000000     0.00000000
     0.00000000     0.00000000     1.00000000
Discrepancy in bohr =     0.000000    0.000000    0.000000

     bfgs converged in   4 scf cycles and   3 bfgs steps
     (criteria: energy <  1.0E-05 Ry, force <  1.0E-04 Ry/Bohr, cell <  5.0E-01 kbar)

     End of BFGS Geometry Optimization

     Final enthalpy           =    -653.8057605484 Ry

     File ./temp/fe-afm.bfgs deleted, as requested
Begin final coordinates
     new unit-cell volume =    142.13477 a.u.^3 (    21.06220 Ang^3 )
     density =      8.80561 g/cm^3

CELL_PARAMETERS (alat=  5.41035287)
   0.964586513   0.000000000   0.000000000
   0.000000000   0.964586513   0.000000000
   0.000000000   0.000000000   0.964586513

ATOMIC_POSITIONS (crystal)
Fe1              0.0000000000        0.0000000000        0.0000000000
Fe1              0.5000000000        0.5000000000        0.5000000000
End final coordinates

     Writing config-only to output data dir ./temp/fe-afm.save/ :
     XML data file

     Final scf calculation at the relaxed structure.
     The G-vectors are recalculated for the final unit cell
     Results may differ from those at the preceding step.

     Using Slab Decomposition

     bravais-lattice index     =            1
     lattice parameter (alat)  =       5.4104  a.u.
     unit-cell volume          =     142.1348 (a.u.)^3
     number of atoms/cell      =            2
     number of atomic types    =            2
     number of electrons       =        32.00
     number of Kohn-Sham states=           20
     kinetic-energy cutoff     =      50.0000  Ry
     charge density cutoff     =     400.0000  Ry
     scf convergence threshold =      1.0E-10
     mixing beta               =       0.7000
     number of iterations used =            8  plain     mixing
     press convergence thresh. =      5.0E-01
     Exchange-correlation= SLA  PW   PSX  PSC
                           (   1   4  10   8   0   0   0)

     celldm(1)=   5.410353  celldm(2)=   0.000000  celldm(3)=   0.000000
     celldm(4)=   0.000000  celldm(5)=   0.000000  celldm(6)=   0.000000

     crystal axes: (cart. coord. in units of alat)
               a(1) = (   0.964587   0.000000   0.000000 )
               a(2) = (   0.000000   0.964587   0.000000 )
               a(3) = (   0.000000   0.000000   0.964587 )

     reciprocal axes: (cart. coord. in units 2 pi/alat)
               b(1) = (  1.036714  0.000000  0.000000 )
               b(2) = (  0.000000  1.036714  0.000000 )
               b(3) = (  0.000000  0.000000  1.036714 )

[...]

     PseudoPot. # 2 for Fe read from file:
     ./../../pseudos/Fe.pbesol-spn-kjpaw_psl.1.0.0.UPF
     MD5 check sum: e30d5f36a6f0cb983ee41abee56170da
     Pseudo is Projector augmented-wave + core cor, Zval = 16.0
     Generated using &quot;atomic&quot; code by A. Dal Corso  v.6.3
     Shape of augmentation charge: PSQ
     Using radial grid of 1191 points,  6 beta functions with:
                l(1) =   0
                l(2) =   0
                l(3) =   1
                l(4) =   1
                l(5) =   2
                l(6) =   2
     Q(r) pseudized with 0 coefficients

     atomic species   valence    mass     pseudopotential
     Fe1              16.00    55.84500     Fe( 1.00)
     Fe2              16.00    55.84500     Fe( 1.00)

     Starting magnetic structure
     atomic species   magnetization
     Fe1             0.145
     Fe2             0.000

     48 Sym. Ops., with inversion, found

   Cartesian axes

     site n.     atom                  positions (alat units)
         1        Fe1    tau(   1) = (   0.0000000   0.0000000   0.0000000  )
         2        Fe1    tau(   2) = (   0.4822933   0.4822933   0.4822933  )

     number of k points=    56  Gaussian smearing, width (Ry)=  0.0200
                       cart. coord. in units 2pi/alat
        k(    1) = (   0.0000000   0.0000000   0.0000000), wk =   0.0007513
        k(    2) = (   0.0000000   0.0000000   0.0942467), wk =   0.0045079
        k(    3) = (   0.0000000   0.0000000   0.1884934), wk =   0.0045079
        k(    4) = (   0.0000000   0.0000000   0.2827401), wk =   0.0045079
        k(    5) = (   0.0000000   0.0000000   0.3769868), wk =   0.0045079
        k(    6) = (   0.0000000   0.0000000   0.4712335), wk =   0.0045079
        k(    7) = (   0.0000000   0.0942467   0.0942467), wk =   0.0090158
        k(    8) = (   0.0000000   0.0942467   0.1884934), wk =   0.0180316
        k(    9) = (   0.0000000   0.0942467   0.2827401), wk =   0.0180316
        k(   10) = (   0.0000000   0.0942467   0.3769868), wk =   0.0180316
        k(   11) = (   0.0000000   0.0942467   0.4712335), wk =   0.0180316
        k(   12) = (   0.0000000   0.1884934   0.1884934), wk =   0.0090158
        k(   13) = (   0.0000000   0.1884934   0.2827401), wk =   0.0180316
        k(   14) = (   0.0000000   0.1884934   0.3769868), wk =   0.0180316
        k(   15) = (   0.0000000   0.1884934   0.4712335), wk =   0.0180316
        k(   16) = (   0.0000000   0.2827401   0.2827401), wk =   0.0090158
        k(   17) = (   0.0000000   0.2827401   0.3769868), wk =   0.0180316
        k(   18) = (   0.0000000   0.2827401   0.4712335), wk =   0.0180316
        k(   19) = (   0.0000000   0.3769868   0.3769868), wk =   0.0090158
        k(   20) = (   0.0000000   0.3769868   0.4712335), wk =   0.0180316
        k(   21) = (   0.0000000   0.4712335   0.4712335), wk =   0.0090158
        k(   22) = (   0.0942467   0.0942467   0.0942467), wk =   0.0060105
        k(   23) = (   0.0942467   0.0942467   0.1884934), wk =   0.0180316
        k(   24) = (   0.0942467   0.0942467   0.2827401), wk =   0.0180316
        k(   25) = (   0.0942467   0.0942467   0.3769868), wk =   0.0180316
        k(   26) = (   0.0942467   0.0942467   0.4712335), wk =   0.0180316
        k(   27) = (   0.0942467   0.1884934   0.1884934), wk =   0.0180316
        k(   28) = (   0.0942467   0.1884934   0.2827401), wk =   0.0360631
        k(   29) = (   0.0942467   0.1884934   0.3769868), wk =   0.0360631
        k(   30) = (   0.0942467   0.1884934   0.4712335), wk =   0.0360631
        k(   31) = (   0.0942467   0.2827401   0.2827401), wk =   0.0180316
        k(   32) = (   0.0942467   0.2827401   0.3769868), wk =   0.0360631
        k(   33) = (   0.0942467   0.2827401   0.4712335), wk =   0.0360631
        k(   34) = (   0.0942467   0.3769868   0.3769868), wk =   0.0180316
        k(   35) = (   0.0942467   0.3769868   0.4712335), wk =   0.0360631
        k(   36) = (   0.0942467   0.4712335   0.4712335), wk =   0.0180316
        k(   37) = (   0.1884934   0.1884934   0.1884934), wk =   0.0060105
        k(   38) = (   0.1884934   0.1884934   0.2827401), wk =   0.0180316
        k(   39) = (   0.1884934   0.1884934   0.3769868), wk =   0.0180316
        k(   40) = (   0.1884934   0.1884934   0.4712335), wk =   0.0180316
        k(   41) = (   0.1884934   0.2827401   0.2827401), wk =   0.0180316
        k(   42) = (   0.1884934   0.2827401   0.3769868), wk =   0.0360631
        k(   43) = (   0.1884934   0.2827401   0.4712335), wk =   0.0360631
        k(   44) = (   0.1884934   0.3769868   0.3769868), wk =   0.0180316
        k(   45) = (   0.1884934   0.3769868   0.4712335), wk =   0.0360631
        k(   46) = (   0.1884934   0.4712335   0.4712335), wk =   0.0180316
        k(   47) = (   0.2827401   0.2827401   0.2827401), wk =   0.0060105
        k(   48) = (   0.2827401   0.2827401   0.3769868), wk =   0.0180316
        k(   49) = (   0.2827401   0.2827401   0.4712335), wk =   0.0180316
        k(   50) = (   0.2827401   0.3769868   0.3769868), wk =   0.0180316
        k(   51) = (   0.2827401   0.3769868   0.4712335), wk =   0.0360631
        k(   52) = (   0.2827401   0.4712335   0.4712335), wk =   0.0180316
        k(   53) = (   0.3769868   0.3769868   0.3769868), wk =   0.0060105
        k(   54) = (   0.3769868   0.3769868   0.4712335), wk =   0.0180316
        k(   55) = (   0.3769868   0.4712335   0.4712335), wk =   0.0180316
        k(   56) = (   0.4712335   0.4712335   0.4712335), wk =   0.0060105

     Check: negative core charge=   -0.000006
     Generating pointlists ...

     Initial potential from superposition of free atoms

     starting charge      31.9992, renormalised to      32.0000
     Starting wfcs are   20 randomized atomic wfcs
     Checking if some PAW data can be deallocated...

     Self-consistent Calculation

[...]

     total energy              =    -653.78893316 Ry
     estimated scf accuracy    <          5.4E-10 Ry

[...]

     iteration # 13     ecut=    50.00 Ry     beta= 0.70
     Davidson diagonalization with overlap
     ethr =  1.70E-12,  avg # of iterations =  2.4

[...]

     Magnetic moment per site  (integrated on atomic sphere of radius R)
     atom   1 (R=0.335)  charge= 14.1481  magn=  2.0599
     atom   2 (R=0.335)  charge= 14.1481  magn=  2.0599

     End of self-consistent calculation

     Number of k-points >= 100: set verbosity='high' to print the bands.

     the Fermi energy is    19.9803 ev

!    total energy              =    -653.78893316 Ry
     total all-electron energy =     -5086.440352 Ry
     estimated scf accuracy    <          3.8E-11 Ry
     smearing contrib. (-TS)   =      -0.00546581 Ry
     internal energy E=F+TS    =    -653.78346736 Ry

     The total energy is F=E-TS. E is the sum of the following terms:
     one-electron contribution =    -204.84989112 Ry
     hartree contribution      =     124.48930480 Ry
     xc contribution           =     -54.95331408 Ry
     ewald contribution        =    -357.03689782 Ry
     one-center paw contrib.   =    -161.43266914 Ry

     total magnetization       =     4.10 Bohr mag/cell
     absolute magnetization    =     4.25 Bohr mag/cell

     convergence has been achieved in  13 iterations

     negative rho (up, down):  0.000E+00 1.989E-04

     Forces acting on atoms (cartesian axes, Ry/au):

     atom    1 type  1   force =     0.00000000    0.00000000    0.00000000
     atom    2 type  1   force =     0.00000000    0.00000000    0.00000000

     Total force =     0.000000     Total SCF correction =     0.000000

     Computing stress (Cartesian axis) and pressure

     negative rho (up, down):  0.000E+00 1.989E-04
          total   stress  (Ry/bohr**3)                   (kbar)     P=     -188.38
  -0.00128056   0.00000000   0.00000000         -188.38        0.00        0.00
   0.00000000  -0.00128056   0.00000000            0.00     -188.38        0.00
   0.00000000   0.00000000  -0.00128056            0.00        0.00     -188.38

     Writing all to output data dir ./temp/fe-afm.save/ :
     XML data file, charge density, pseudopotentials, collected wavefunctions

     General routines

     Parallel routines

   This run was terminated on:   7: 5:59  23Dec2024

   JOB DONE.